*Heading
** Job name: Job-1 Model name: Model-1
** Generated by: Abaqus/CAE 2022
*Preprint, echo=NO, model=NO, history=NO, contact=NO
** ----------------------------------------------------------------
** 
** PART INSTANCE: Part-1-1
** 
*System
      -39.75,      -19.75,          0.,      -38.75,      -19.75,          0.
*Node
      1,    33.013752,   23.6095524
      2,   32.3809052,   23.2079372
      3,   32.0613441,   22.8216534
      4,   31.7854252,   22.1247635
      5,   31.7854252,   21.3752365
      6,   32.0613441,   20.6783466
      7,   32.3809052,   20.2920628
      8,    33.013752,   19.8904476
      9,        33.75,        23.75
     10,        33.75,        19.75
     11,        34.25,        19.75
     12,        34.75,        19.75
     13,        35.25,        19.75
     14,        35.75,        19.75
     15,        36.25,        19.75
     16,        36.75,        19.75
     17,        37.25,        19.75
     18,        37.75,        19.75
     19,        38.25,        19.75
     20,        38.75,        19.75
     21,        39.25,        19.75
     22,        39.75,        19.75
     23,        39.75,        19.25
     24,        39.75,        18.75
     25,        39.75,        18.25
     26,        39.75,        17.75
     27,        39.75,        17.25
     28,        39.75,        16.75
     29,        39.75,        16.25
     30,        39.75,        15.75
     31,        39.75,        15.25
     32,        39.75,        14.75
     33,        39.75,        14.25
     34,        39.75,        13.75
     35,   39.8904457,    13.013751
     36,   40.2920609,   12.3809061
     37,   40.6783447,   12.0613441
     38,   41.3752365,   11.7854252
     39,   42.1247635,   11.7854252
     40,   42.8216553,   12.0613441
     41,   43.2079391,   12.3809061
     42,   43.6095543,    13.013751
     43,        43.75,        13.75
     44,        43.75,        23.25
     45,        43.75,        22.75
     46,        43.75,        22.25
     47,        43.75,        21.75
     48,        43.75,        21.25
     49,        43.75,        20.75
     50,        43.75,        20.25
     51,        43.75,        19.75
     52,        43.75,        19.25
     53,        43.75,        18.75
     54,        43.75,        18.25
     55,        43.75,        17.75
     56,        43.75,        17.25
     57,        43.75,        16.75
     58,        43.75,        16.25
     59,        43.75,        15.75
     60,        43.75,        15.25
     61,        43.75,        14.75
     62,        43.75,        14.25
     63,        43.75,        23.75
     64,        34.25,        23.75
     65,        34.75,        23.75
     66,        35.25,        23.75
     67,        35.75,        23.75
     68,        36.25,        23.75
     69,        36.75,        23.75
     70,        37.25,        23.75
     71,        37.75,        23.75
     72,        38.25,        23.75
     73,        38.75,        23.75
     74,        39.25,        23.75
     75,        39.75,        23.75
     76,        40.25,        23.75
     77,        40.75,        23.75
     78,        41.25,        23.75
     79,        41.75,        23.75
     80,        42.25,        23.75
     81,        42.75,        23.75
     82,        43.25,        23.75
     83,   41.2852783,   14.6354561
     84,   40.9270172,   14.3180647
     85,   40.7572899,   13.8705368
     86,   40.8149834,   13.3953953
     87,   41.0868759,   13.0014896
     88,    41.510685,   12.7790585
     89,    41.989315,   12.7790585
     90,   42.4131241,   13.0014896
     91,   42.6850166,   13.3953953
     92,   42.7427101,   13.8705368
     93,   42.5729828,   14.3180647
     94,   42.2147217,   14.6354561
     95,        41.75,        14.75
     96,   33.2852783,   22.6354561
     97,   32.9270172,   22.3180656
     98,   32.7572899,   21.8705368
     99,   32.8149834,   21.3953953
    100,   33.0868759,   21.0014896
    101,    33.510685,   20.7790585
    102,    33.989315,   20.7790585
    103,   34.4131241,   21.0014896
    104,   34.6850166,   21.3953953
    105,   34.7427101,   21.8705368
    106,   34.5729828,   22.3180656
    107,   34.2147217,   22.6354561
    108,        33.75,        22.75
    109,   32.2643127,   22.3772869
    110,   32.8679581,   23.3462315
    111,   33.2071991,   23.2086163
    112,   33.8172951,   23.2120838
    113,    34.288681,   23.3606167
    114,   34.7808189,   23.2602882
    115,   35.5173416,   23.3562031
    116,   35.9762077,   23.3080196
    117,   36.4754829,   23.2455959
    118,   37.0055351,   23.2673302
    119,   37.5011826,   23.2726307
    120,   37.9897881,   23.2588406
    121,   38.5061989,   23.2333317
    122,   39.0314445,   23.2652225
    123,   39.5352821,   23.2768192
    124,   40.0260353,   23.2721462
    125,   40.5088425,   23.2684917
    126,   41.2460594,   23.2329655
    127,   41.7431412,   23.2637386
    128,    42.228672,   23.2635193
    129,   42.7235146,   23.2439423
    130,   43.2353516,   23.2425728
    131,   32.4839401,   22.8037033
    132,   32.7835197,   22.7721138
    133,   34.7063828,   22.7234554
    134,   35.4985237,   22.8207436
    135,   35.8282928,   22.8647633
    136,   36.4390297,   22.6451511
    137,   37.0609779,   22.6032963
    138,   37.4976578,   22.7998352
    139,   37.9567719,   22.7654495
    140,   38.5350533,   22.6315365
    141,   39.1490555,   22.5896912
    142,   39.5930252,   22.5850677
    143,   40.0391502,   22.7933216
    144,   40.5299797,   22.7728786
    145,   41.0441246,   22.7284203
    146,   41.5833511,   22.7747364
    147,   42.1274986,    22.759449
    148,   42.6862183,   22.7411175
    149,   43.2246819,   22.7424984
    150,   32.2923317,   21.6793957
    151,   32.3393784,    21.266428
    152,   32.6863861,   20.7464695
    153,   33.4527435,   20.5654545
    154,   34.3609161,   20.7085018
    155,   34.8982697,   20.5532551
    156,   35.5745392,   20.6662922
    157,   35.9280815,   20.6560802
    158,    36.410099,   20.6483173
    159,   37.0912704,   20.7458553
    160,    37.544487,   20.6773224
    161,   38.0178261,   20.6553669
    162,   38.5637665,   20.6569843
    163,   39.1130753,   20.7064114
    164,   39.5936089,   20.7703743
    165,   40.1981506,   20.6414299
    166,   40.6857262,    20.820734
    167,   41.1834641,   20.6627235
    168,   41.6200905,   20.6709862
    169,    42.296257,   20.4135227
    170,   42.7591743,   20.4749889
    171,   43.2591629,   20.7290592
    172,   33.2961006,   20.0028629
    173,   34.1468658,   20.1466026
    174,    34.382019,   20.1919079
    175,   34.9519806,    20.017952
    176,   35.4600563,   20.2596302
    177,   35.9796104,   20.2173939
    178,   36.4950752,   20.2408848
    179,    37.009201,   20.2477093
    180,    37.511322,   20.2157345
    181,   38.0093079,   20.2009068
    182,   38.5008316,   20.1772652
    183,   39.0907173,   20.1401367
    184,   40.1740036,   20.1729259
    185,   40.7437057,   20.0404968
    186,   41.1880646,   20.1183414
    187,   41.6026459,   19.9905319
    188,   42.2992325,   20.0121193
    189,   42.7542953,   20.0095882
    190,   43.2555199,   20.0089455
    191,   40.2232323,   19.5459881
    192,   40.7027092,    19.486248
    193,   41.2309074,   19.3934307
    194,     41.73806,   19.5465508
    195,   42.2578049,   19.5301743
    196,   42.7461357,   19.5279026
    197,   43.2506294,   19.5156231
    198,   40.2063026,   19.0428391
    199,   40.6884422,   19.0345612
    200,   40.9695969,   19.1032753
    201,    41.638382,    18.996748
    202,   42.1939201,   19.0424347
    203,   42.7413406,   19.0263062
    204,   43.2479973,   19.0130119
    205,   40.2137146,   18.5506268
    206,   40.6869659,   18.5553913
    207,   41.0807762,   18.3518314
    208,   41.6704636,   18.5171757
    209,   42.2565804,   18.5515118
    210,   42.7361107,   18.5207844
    211,   43.2467995,   18.5087395
    212,   40.2008705,   18.0494499
    213,   40.7620888,   17.8382587
    214,   41.3026543,   18.0137749
    215,   41.6078644,   18.0736542
    216,   42.1629219,   18.0036583
    217,   42.7307854,   18.0179958
    218,   43.2465744,    18.007946
    219,   40.2019958,   17.3117352
    220,   40.6747971,   17.3167877
    221,   41.1748543,   17.4439526
    222,   42.2908249,   17.5025101
    223,   42.7485008,   17.5080166
    224,   43.2470856,   17.5042934
    225,   40.2043571,   16.8164692
    226,   40.6565018,   16.8419399
    227,   41.7021523,   17.0249958
    228,   42.2136726,   17.0053444
    229,   42.7536964,   16.9891109
    230,   43.2517509,   16.9970341
    231,   40.1942787,   16.3242435
    232,   40.6574173,   16.3506336
    233,   41.2542725,   16.4909878
    234,   41.7288055,   16.4489536
    235,   42.1249352,   16.5201664
    236,   42.7934036,   16.4776001
    237,   43.2670097,   16.4989681
    238,    40.173687,    15.862174
    239,   40.6975937,    15.650754
    240,   41.1887703,   15.9087152
    241,   41.7803612,   15.9267292
    242,   42.1554756,   16.0471001
    243,   42.8659554,   16.0318298
    244,   43.2812462,   16.0198689
    245,   40.2124901,   15.4046278
    246,   40.7170601,   15.2604885
    247,   41.1728477,   15.3373194
    248,   41.8037338,   15.3872776
    249,   42.1201706,   15.4663944
    250,   42.7005386,    15.456563
    251,   43.2448997,   15.5636559
    252,   40.0995522,   14.8104448
    253,    40.500145,   14.8654747
    254,   41.1747818,   14.8081017
    255,   42.1016731,   14.9350452
    256,   42.8428497,   14.7998104
    257,    43.169548,   14.8449907
    258,   39.9983215,   14.2546282
    259,   40.6221428,   14.2005377
    260,   43.2969818,   14.4639196
    261,   40.1298523,    13.113801
    262,    40.633976,   13.2391329
    263,     40.70895,   12.7282562
    264,   43.3012886,   12.8483925
    265,   42.8375893,   12.8528233
    266,   41.1626587,    12.318079
    267,   41.6684265,   12.2345953
    268,   42.4711533,   12.1965723
    269,   42.7503548,   12.4208593
    270,   43.2747002,   13.4670601
    271,   43.2066612,   13.9642477
    272,   43.2466736,   21.2025738
    273,   42.7669106,   21.1312122
    274,    42.244915,   21.0926819
    275,   41.6692276,   20.9855061
    276,   41.2535896,   21.2425861
    277,   40.5241241,    21.185873
    278,   40.1338654,   21.2496166
    279,   39.3891983,   21.2507534
    280,   39.1356621,   21.2692165
    281,    38.586422,   21.2281075
    282,   37.9945984,   21.1217213
    283,   37.3778877,    21.169548
    284,   37.0282784,   21.2009087
    285,   36.4167976,   21.2728443
    286,    35.911377,   21.2441235
    287,   35.3497772,   21.1412506
    288,   34.9431496,   21.1796799
    289,   43.1530457,   21.7181244
    290,   42.7017174,   21.7562656
    291,   42.0092773,   21.6501541
    292,    41.621376,    21.596487
    293,   41.1226273,    21.573082
    294,   40.6432457,   21.6952915
    295,   40.1493378,   21.7224197
    296,   39.5815277,   21.5874577
    297,   39.1570511,   21.6023331
    298,   38.4211807,   21.6311817
    299,   38.0267601,   21.7629147
    300,    37.568409,   21.6870651
    301,   36.9422226,   21.6302891
    302,   36.4477272,   21.6849689
    303,   35.9189911,   21.6947308
    304,   35.5852661,   21.7760658
    305,   43.2151489,   22.2533588
    306,   42.6325722,   22.2363491
    307,   42.1102753,   22.2718906
    308,   41.6427002,   22.3086891
    309,   41.1045341,   22.2440948
    310,   40.5929565,   22.1585293
    311,   39.9866638,   22.3403339
    312,   39.5583611,   22.0844746
    313,   38.9063759,   22.0143509
    314,    38.507885,   22.0400982
    315,   37.8546333,   22.2479076
    316,   37.4391785,   22.2756805
    317,   36.9230118,   22.2277088
    318,   36.4840965,   22.2995472
    319,   35.9875946,   22.2069893
    320,    35.372345,   22.1745682
    321,   34.8448181,   22.1770954
    322,   33.4993324,     23.73423
    323,   33.2526207,   23.6871662
    324,   32.7864914,   23.5026131
    325,   32.5744286,   23.3680344
    326,   32.2089729,    23.024847
    327,   31.9403458,   22.6015587
    328,    31.847887,   22.3680344
    329,   31.7539463,   21.8755817
    330,   31.7539463,   21.6244183
    331,    31.847887,   21.1319656
    332,   31.9403458,   20.8984413
    333,   32.2089729,    20.475153
    334,   32.5744286,   20.1319656
    335,   32.7864914,   19.9973869
    336,   33.2526207,   19.8128338
    337,   33.4993324,     19.76577
    338,          34.,        19.75
    339,         34.5,        19.75
    340,          35.,        19.75
    341,         35.5,        19.75
    342,          36.,        19.75
    343,         36.5,        19.75
    344,          37.,        19.75
    345,         37.5,        19.75
    346,          38.,        19.75
    347,         38.5,        19.75
    348,          39.,        19.75
    349,         39.5,        19.75
    350,        39.75,         19.5
    351,        39.75,          19.
    352,        39.75,         18.5
    353,        39.75,          18.
    354,        39.75,         17.5
    355,        39.75,          17.
    356,        39.75,         16.5
    357,        39.75,          16.
    358,        39.75,         15.5
    359,        39.75,          15.
    360,        39.75,         14.5
    361,        39.75,          14.
    362,     39.76577,   13.4993334
    363,   39.8128319,   13.2526207
    364,   39.9973869,   12.7864923
    365,   40.1319656,   12.5744295
    366,   40.4751511,   12.2089739
    367,   40.8984413,   11.9403458
    368,   41.1319656,    11.847887
    369,   41.6244202,   11.7539463
    370,   41.8755798,   11.7539463
    371,   42.3680344,    11.847887
    372,   42.6015587,   11.9403458
    373,   43.0248489,   12.2089739
    374,   43.3680344,   12.5744295
    375,   43.5026131,   12.7864923
    376,   43.6871681,   13.2526207
    377,     43.73423,   13.4993334
    378,        43.75,         23.5
    379,        43.75,          23.
    380,        43.75,         22.5
    381,        43.75,          22.
    382,        43.75,         21.5
    383,        43.75,          21.
    384,        43.75,         20.5
    385,        43.75,          20.
    386,        43.75,         19.5
    387,        43.75,          19.
    388,        43.75,         18.5
    389,        43.75,          18.
    390,        43.75,         17.5
    391,        43.75,          17.
    392,        43.75,         16.5
    393,        43.75,          16.
    394,        43.75,         15.5
    395,        43.75,          15.
    396,        43.75,         14.5
    397,        43.75,          14.
    398,          34.,        23.75
    399,         34.5,        23.75
    400,          35.,        23.75
    401,         35.5,        23.75
    402,          36.,        23.75
    403,         36.5,        23.75
    404,          37.,        23.75
    405,         37.5,        23.75
    406,          38.,        23.75
    407,         38.5,        23.75
    408,          39.,        23.75
    409,         39.5,        23.75
    410,          40.,        23.75
    411,         40.5,        23.75
    412,          41.,        23.75
    413,         41.5,        23.75
    414,          42.,        23.75
    415,         42.5,        23.75
    416,          43.,        23.75
    417,         43.5,        23.75
    418,    41.510685,   14.7209415
    419,   41.0868759,   14.4985104
    420,   40.8149834,   14.1046047
    421,   40.7572899,   13.6294632
    422,   40.9270172,   13.1819353
    423,   41.2852783,   12.8645439
    424,        41.75,        12.75
    425,   42.2147217,   12.8645439
    426,   42.5729828,   13.1819353
    427,   42.7427101,   13.6294632
    428,   42.6850166,   14.1046047
    429,   42.4131241,   14.4985104
    430,    41.989315,   14.7209415
    431,    33.510685,   22.7209415
    432,   33.0868759,   22.4985104
    433,   32.8149834,   22.1046047
    434,   32.7572899,   21.6294632
    435,   32.9270172,   21.1819344
    436,   33.2852783,   20.8645439
    437,        33.75,        20.75
    438,   34.2147217,   20.8645439
    439,   34.5729828,   21.1819344
    440,   34.7427101,   21.6294632
    441,   34.6850166,   22.1046047
    442,   34.4131241,   22.4985104
    443,    33.989315,   22.7209415
    444,   41.6036339,    12.542984
    445,   33.6914215,   20.4768562
    446,   32.8065186,   20.9731255
    447,   34.5411453,   22.6012707
    448,   32.5450783,   21.4245777
    449,   32.5498161,   22.0524445
    450,   35.0654144,   21.5269852
    451,   42.3222656,   14.8225851
    452,   41.0422783,   12.7253275
    453,    42.712204,   14.5862484
    454,   40.9093666,   12.8765011
    455,   42.0116386,   12.6396465
    456,   34.1445045,   22.8838158
    457,    34.151844,   20.6092587
    458,   40.4560661,   13.7036667
    459,   42.9481544,   13.8311033
    460,   32.6628532,   22.3215847
    461,   34.3418427,   22.7584839
    462,   42.4963875,   12.7855492
    463,   33.0180511,   22.7906246
    464,   33.2054367,   20.6684341
    465,   34.7815056,   21.0170937
    466,   42.8736038,   13.4709482
    467,   42.8843651,   14.0952644
    468,   35.0028954,   21.7197952
    469,   32.5494308,   21.6347237
    470,   42.8618431,   14.3075886
    471,   42.8904991,   13.2946291
    472,   34.0167503,   20.5132771
    473,   41.8944206,   15.0361042
    474,   41.8380966,   12.6192703
    475,   33.9745827,   23.0084648
    476,   33.6421051,   22.9913044
    477,    40.472126,   13.9640846
    478,   41.5515251,   15.0121384
    479,   32.6542053,   21.1083412
    480,   41.2934303,   12.6955681
    481,   41.3839684,   14.8994284
    482,   35.9960251,     23.52952
    483,   35.5099182,    23.549345
    484,   36.4913406,   23.5027962
    485,   37.0001488,   23.5063419
    486,   37.5005341,   23.5104771
    487,   37.9973412,   23.5036068
    488,   38.5026016,    23.493969
    489,   38.0030289,   19.9747124
    490,   39.0127754,   23.5039616
    491,   38.4976921,   19.9608154
    492,   39.5170631,   23.5117741
    493,   38.9682846,   19.9230862
    494,   40.0132561,   23.5123215
    495,   39.3997154,   19.9969864
    496,    40.505127,   23.5107212
    497,   43.5081749,   16.5009575
    498,   43.5004616,   16.9992275
    499,   43.5138664,   16.0087204
    500,   39.9634247,   16.0480633
    501,   39.9687462,     15.56495
    502,    39.973877,   16.5376873
    503,   39.9705772,   17.5309906
    504,   39.9748917,   17.0340309
    505,   40.0290108,   15.0737543
    506,   39.9726677,   14.0263023
    507,   43.4862099,   13.9788542
    508,   43.5099335,   14.4827194
    509,    43.404007,   15.0060129
    510,   43.4959526,   15.5230951
    511,   43.4982452,   17.5019894
    512,   43.4988213,   18.0036507
    513,   43.4987297,   18.5042667
    514,   43.4989891,   19.0063343
    515,   43.5011063,   19.5074883
    516,   43.5047913,   20.0042648
    517,   43.5069809,   20.4959602
    518,   43.5026398,    20.986002
    519,   43.4956017,   23.4967403
    520,   42.9895744,   23.4950886
    521,    43.479641,   21.4828377
    522,   42.4884949,   23.5007858
    523,   41.9931374,   23.5074043
    524,   41.4944496,   23.4991341
    525,   41.0013351,   23.5018463
    526,   35.0178871,   23.5324974
    527,   34.5173187,   23.5352612
    528,   34.0241661,   23.5234203
    529,   43.4900703,   22.9951973
    530,    43.485836,   22.4973431
    531,   43.4718666,   21.9947643
    532,   34.1963272,   19.9569225
    533,    34.699707,   19.9886017
    534,   35.2106247,   20.0229187
    535,   35.7308846,   19.9987373
    536,   36.2444916,   19.9930058
    537,    36.752636,   20.0005493
    538,   37.2521858,   19.9897709
    539,   37.7535286,   19.9787636
    540,   39.9826164,   19.2769241
    541,   39.9799194,   18.7730274
    542,   39.9731865,   18.2762222
    543,    39.970993,    17.777153
    544,   43.4925575,   23.2453709
    545,   43.4880371,   22.7457371
    546,   43.4807243,   22.2482834
    547,   43.4634857,   21.7366543
    548,   43.4950218,   21.2316475
    549,   43.5061874,   20.7403717
    550,   43.5061264,   20.2509193
    551,   43.5027924,   19.7566814
    552,   43.4997139,   19.2572994
    553,   43.4986153,   18.7552986
    554,   43.4986992,   18.2538433
    555,   43.4983101,    17.753315
    556,   43.4988708,   17.2505531
    557,   43.5041008,   16.7494736
    558,   43.5129166,   16.2543106
    559,   43.5092201,   15.7632885
    560,   43.4679756,   15.2780991
    561,   43.4842377,   14.7323771
    562,   43.5040741,   14.2338638
    563,   33.7836533,   23.4951725
    564,   34.2699318,   23.5437775
    565,   34.7673378,   23.5200462
    566,   35.2649994,   23.5460358
    567,    35.753315,   23.5435696
    568,    36.241993,   23.5140076
    569,   36.7452087,   23.5019131
    570,   37.2516365,   23.5098076
    571,   37.7484856,    23.508358
    572,   38.2489853,   23.4974937
    573,   38.7567596,   23.4977016
    574,   39.2659149,   23.5091114
    575,   39.7658043,   23.5127411
    576,   40.2595177,   23.5118904
    577,   40.7518959,   23.5073299
    578,    41.248539,   23.4974384
    579,   41.7437172,   23.5049419
    580,   42.2411499,   23.5060616
    581,   42.7381516,   23.4971027
    582,   43.2423706,   23.4951668
    583,   33.7193336,   19.9645557
    584,    32.597641,   23.0378342
    585,   32.9188843,   20.2210083
    586,   40.6614113,   12.4004068
    587,   41.6622162,   11.9852705
    588,   42.1294518,   11.9893703
    589,   33.3130493,   23.4447308
    590,   33.5093575,   19.9583549
    591,   43.1810379,   12.6608801
    592,   32.0608025,   21.3660507
    593,   43.4927025,    13.729002
    594,   41.2240524,   12.0433636
    595,   43.4916267,   13.4908943
    596,   41.0258331,   12.1384335
    597,   32.2209282,     21.16119
    598,   42.6198235,    12.280755
    599,   43.3947525,   13.0499592
    600,   32.5451889,   20.5205364
    601,   40.0825615,    13.566164
    602,   31.9826469,   22.0824471
    603,   32.0184212,     21.62953
    604,   31.9826546,   21.8623142
    605,   41.9013901,   11.9884377
    606,   40.0677185,   13.3225307
    607,   43.4603462,   13.2623739
    608,   40.3580589,   12.7385855
    609,   33.0934334,   20.0878506
    610,   32.3790741,   20.6748295
    611,   32.0436707,   22.2845364
    612,   32.7298584,    20.370182
    613,   32.7493401,   23.2012272
    614,    32.126461,   22.4792385
    615,   33.5474205,   23.4855671
    616,   40.5030785,   12.5619717
    617,   31.9922352,   21.1704006
    618,   40.8361053,    12.258873
    619,   42.3352127,   12.0006123
    620,   41.4383583,   11.9853268
    621,   40.7345238,   14.4715319
    622,   34.2045174,   20.3666744
    623,   41.3723335,   15.1825113
    624,   37.7603607,   20.2069111
    625,   40.2036438,   17.5570717
    626,   38.2562294,   20.1914444
    627,   37.2621231,   20.2300949
    628,   40.2032242,   17.0611267
    629,   40.2062988,   18.2993393
    630,   38.9495049,   20.0715389
    631,   36.7556839,   20.2606697
    632,   40.2006569,    16.566288
    633,   40.2224007,   18.8007736
    634,   41.9422302,   12.2211609
    635,   41.3338852,   12.2217875
    636,   40.9970207,   12.4358368
    637,   43.2553062,   13.6875334
    638,   33.3666077,   23.2551155
    639,   32.7811508,   22.9479771
    640,   43.1203804,   12.9126806
    641,   33.6499977,   20.2264538
    642,   40.3346901,   13.4988766
    643,   40.2065582,   19.2940445
    644,   39.4352379,   20.3084946
    645,   36.2330894,   20.2225914
    646,   40.1816826,   16.0872746
    647,   34.7126465,   22.4026299
    648,   40.7637558,   13.0543489
    649,   32.8080139,   22.5589523
    650,    42.712635,   12.9927921
    651,   40.9597588,   14.6612129
    652,   33.0718269,   23.3353577
    653,   43.1933441,   13.0852985
    654,    38.250679,   19.9684734
    655,   37.5032158,   19.9836559
    656,    39.973114,   18.0254803
    657,   39.9737091,   17.2811298
    658,   33.9532661,    19.961401
    659,   35.4713745,   20.0116234
    660,   35.9882812,   19.9915161
    661,   36.5002365,   19.9977951
    662,   37.0018845,    19.997036
    663,    39.990799,   19.5454273
    664,    39.979763,   19.0218353
    665,   39.9785805,   18.5256939
    666,   38.7409554,   19.9461403
    667,    39.189785,   19.9464664
    668,    39.597065,   20.0686474
    669,   39.9750748,   16.7839203
    670,   39.9685631,   16.2895889
    671,   39.9612846,   15.8063507
    672,   39.9898224,   15.3184147
    673,   39.9991226,   13.7984619
    674,    43.257637,   20.2512722
    675,   43.2528343,   19.7632847
    676,   43.2487946,   19.2646885
    677,   43.2469254,    18.761076
    678,    43.246109,   18.2581482
    679,   43.2461891,   17.7573853
    680,   43.2486267,    17.250536
    681,   43.2585831,    16.747036
    682,   43.2177429,    15.350172
    683,   35.2865601,   23.3497906
    684,   35.7452164,   23.3410034
    685,   43.2780724,   16.2581463
    686,   43.2709656,   15.7843752
    687,   36.2174988,   23.2718754
    688,   36.7436752,   23.2539768
    689,   37.2565346,   23.2733746
    690,   37.7447777,   23.2678928
    691,   38.2440681,   23.2445621
    692,   38.7704811,   23.2488079
    693,   39.2861557,   23.2742729
    694,   39.7811699,   23.2758751
    695,   40.2308846,   12.9240808
    696,    43.042614,   12.4852009
    697,   40.1809654,    15.631299
    698,   35.7252922,   20.2249241
    699,   32.3710976,   21.0113716
    700,   34.6156349,   20.8189774
    701,   34.1079521,   20.2915344
    702,   40.2207947,   13.8805323
    703,   42.2291565,   15.1431122
    704,   33.3933372,   20.3636379
    705,   42.6950722,     12.68433
    706,   32.9614906,    23.057909
    707,   35.1196632,    23.117651
    708,   40.2767372,   23.0237598
    709,   43.0069962,   20.2500267
    710,   43.0207634,   15.4086771
    711,   32.5815468,   22.5346737
    712,   32.5236931,    20.881485
    713,   40.8355637,   14.8543758
    714,    39.786705,   20.1836853
    715,   40.2651443,   19.8015823
    716,   34.6762581,   20.5846004
    717,   35.7164459,   23.1478863
    718,   39.7937508,   23.0414143
    719,   43.0512924,   15.8175125
    720,   43.0009193,   19.7681141
    721,   35.0307732,   22.2747517
    722,   41.0596008,   15.0483866
    723,   38.0151901,   20.4280453
    724,   40.4376068,   17.3228321
    725,   38.5012779,   20.4023972
    726,    37.032238,   20.5012875
    727,   40.4587555,   18.5677319
    728,    40.430851,   16.8326511
    729,   41.3052063,   12.4725676
    730,    36.162529,   23.0268345
    731,   42.9966927,   19.2711658
    732,    43.049572,   16.2578373
    733,   39.3111038,   23.0461197
    734,   42.9674263,   13.1290321
    735,   39.1104736,   20.4099751
    736,   36.4674454,   20.4650631
    737,   40.4218369,   19.0770779
    738,   40.4228516,   16.3410511
    739,   33.9326057,   20.3694553
    740,   40.2570992,   13.7286606
    741,   40.4667473,   19.5266342
    742,    39.608242,   20.4243603
    743,    35.966095,   20.4275608
    744,   40.3805542,   15.9004374
    745,   40.4865417,    15.318182
    746,   35.4864769,   20.4797153
    747,   42.9938583,   18.7676754
    748,   43.0132904,   16.7416325
    749,   36.7590218,    23.015852
    750,   38.8036919,   23.0086365
    751,   42.4453163,   15.0260067
    752,    42.013916,   15.2614765
    753,   40.2685394,   14.2076578
    754,   33.3855553,   23.0720825
    755,   33.1890755,   23.0415516
    756,    42.875721,   12.5854273
    757,   42.4247513,   12.5220737
    758,   42.9904938,   18.2628574
    759,   42.9992256,    17.249445
    760,   37.2646217,   23.0422497
    761,   38.2270737,   22.9955444
    762,   41.1550331,   12.5867577
    763,   37.7382622,   23.0275078
    764,   42.9929886,   17.7618732
    765,   32.4872589,    21.202816
    766,   41.6891556,   15.1824961
    767,   40.6920509,    15.010704
    768,   40.8494377,   12.5734434
    769,   40.0355721,   23.0329704
    770,   35.5147209,   23.0431881
    771,   42.9611931,   15.6030273
    772,   43.0050621,    20.008852
    773,   34.8488541,   20.7406921
    774,   39.9927025,   19.8808231
    775,   40.2519608,   13.3461342
    776,   35.1488075,   22.0514317
    777,   39.5537376,   23.0475559
    778,   35.9256287,   23.0891323
    779,    43.065361,   16.0362301
    780,   42.9987831,   19.5210476
    781,   37.7688408,   20.4345055
    782,    40.450058,   17.5711365
    783,   38.2633591,   20.4211159
    784,   37.2828789,    20.468029
    785,   40.6687241,   18.3348236
    786,   40.4327431,   17.0754433
    787,   39.0627899,   23.0352535
    788,   36.4523773,    22.957119
    789,   43.0307732,   16.4950123
    790,   42.9951744,   19.0194626
    791,   36.7530899,   20.5536137
    792,   38.6900864,   20.3569717
    793,   40.5009346,   18.8405743
    794,   40.4270439,   16.5842514
    795,    40.426693,    19.302639
    796,   36.2104034,   20.4341583
    797,    39.435936,   20.6319141
    798,   40.4068985,   16.1118107
    799,   40.5920219,   15.5714712
    800,    40.273056,   15.1943264
    801,   35.7336655,   20.4210091
    802,   43.0040398,   16.9941711
    803,   42.9915657,   18.5144176
    804,   38.5179024,   22.9428558
    805,   37.0198936,   23.0376759
    806,   40.2666168,   14.4730482
    807,   42.9960632,   17.5066509
    808,   37.9771957,   23.0150013
    809,   37.5019646,   23.0374527
    810,   42.9905052,   18.0133114
    811,   40.4843521,   14.4635897
    812,   34.9913597,   20.8450584
    813,   35.1835747,   20.2952576
    814,   34.6360741,   20.2005405
    815,   42.3433838,   15.3411827
    816,   33.1817818,    20.228775
    817,   32.4775391,   22.2492275
    818,   34.5012474,   22.8921947
    819,   34.1624756,   23.1426048
    820,   43.1052742,   13.2773733
    821,   43.0785027,   14.2826376
    822,   34.3126831,   23.0187969
    823,   42.9092445,    14.508914
    824,   32.3493996,   21.9930763
    825,   35.1878929,   21.3341522
    826,   42.5697632,    15.231987
    827,   42.4295387,   15.5241566
    828,   37.2726555,   22.8142853
    829,   42.7302094,   18.2678776
    830,   37.7268066,    22.781292
    831,   42.7395706,   17.7654514
    832,   32.2567177,   22.1905575
    833,   41.4998436,   15.3223057
    834,   40.5654678,   15.1538935
    835,   34.6493073,   23.0468616
    836,   33.1107483,   20.4251785
    837,    34.445858,   23.1583519
    838,   40.8602867,   15.1785021
    839,   35.1780014,   22.9154854
    840,    42.905014,   15.2802601
    841,   40.2817688,   22.7759857
    842,   42.7607536,   20.2440987
    843,   34.9365311,   21.9423351
    844,   35.6423569,   22.9654102
    845,   39.8012047,   22.8124924
    846,   42.7891235,   15.7803965
    847,   42.7498207,   19.7695026
    848,   40.5158081,    13.390543
    849,   37.5257797,   20.4472046
    850,   40.4452629,   18.0700359
    851,   36.2826653,   22.7134686
    852,    39.105526,   22.8100471
    853,   42.7444725,    19.276125
    854,   40.3327827,   14.6951523
    855,   40.0309601,   14.5079155
    856,   36.8088722,   22.7943363
    857,   38.6712379,   22.7192421
    858,   42.7396622,   18.7759686
    859,   38.1821671,    22.756567
    860,   43.0506783,   14.1163139
    861,   34.8852806,   20.2987061
    862,   35.3380051,    21.654192
    863,   35.1556511,   20.9874802
    864,    34.067524,   23.3130512
    865,   35.1870956,   20.5891533
    866,   40.8069038,   15.6145086
    867,   40.5213814,   19.7477913
    868,   39.7844276,    20.584341
    869,   39.2727051,   20.8214207
    870,   40.6670151,   16.0999069
    871,   40.6387138,   14.7058401
    872,    34.446949,   19.9716206
    873,   40.3725777,   20.0347519
    874,   39.9828568,   20.3860245
    875,   38.7861328,   20.7895889
    876,   40.6505852,   16.5954762
    877,   40.3379517,   13.2240725
    878,   32.3082771,   21.4407291
    879,   37.3163223,   20.7032967
    880,   38.2710686,   20.6548176
    881,   40.6634979,   17.0727654
    882,   40.8967133,   18.1670303
    883,   38.3328094,   22.4353771
    884,   42.5110092,   17.2477379
    885,   43.2817497,   14.2392397
    886,   35.2476044,   21.8446789
    887,   36.8515358,    22.583765
    888,   38.9378662,   22.5551987
    889,   42.4879417,   18.7862701
    890,   42.5155754,   16.7111092
    891,   36.2200203,   22.4756641
    892,   39.3734512,   22.5911884
    893,   42.4962502,   19.2810421
    894,   42.6170387,   16.2011776
    895,   37.7035179,   22.5306549
    896,   42.4889374,   17.7631073
    897,   40.2751503,    22.529026
    898,   42.5253448,   20.2330074
    899,   35.0780869,   22.6114292
    900,   41.5966606,   15.5075235
    901,   39.8032227,   22.5946426
    902,   42.5113335,   15.9130459
    903,   42.2185516,   15.6583281
    904,    40.462841,   17.8209095
    905,   42.9893684,   14.9816484
    906,   40.5136909,   23.0250015
    907,   43.0098228,   20.4838543
    908,   35.4411316,   21.4669228
    909,   40.8157616,   19.7357025
    910,   40.3601723,   20.3923569
    911,   36.9469986,   21.0357227
    912,   40.8850365,   18.3529949
    913,   38.4727249,   20.9287682
    914,   40.8815536,   16.8262863
    915,   39.1255646,   21.0017071
    916,   40.8734627,   16.3739395
    917,   39.4203415,   20.9507866
    918,   40.9803925,   15.8172207
    919,   40.9438438,   15.3844385
    920,   39.3417816,    22.819294
    921,   42.8300285,   16.2436543
    922,   38.8740807,   22.7789574
    923,   42.7670097,   16.7310276
    924,   40.9152451,   17.2784843
    925,    38.009388,   20.8870544
    926,   43.0434189,   13.5949745
    927,    40.990818,   17.9955139
    928,   37.3515701,   20.9354572
    929,   41.1804047,   15.6118412
    930,   35.5680046,   21.2831726
    931,   43.2598228,   20.4899139
    932,   37.9602737,   22.4786186
    933,   42.5103683,   17.5073547
    934,   38.5593605,   22.4536514
    935,   36.8809357,   22.3960361
    936,   42.4846001,   18.5309086
    937,   42.4973221,   16.9869289
    938,   39.1867752,   22.3859577
    939,   36.4502449,   22.4848175
    940,   42.4827843,   19.0330391
    941,   42.5652885,   16.4450855
    942,    35.460022,    22.508503
    943,   40.0306435,    22.565712
    944,   42.5169601,    20.001646
    945,   41.6839981,   15.7136354
    946,   42.4087791,   16.1396942
    947,   41.9051704,   15.5945854
    948,   37.1478996,   20.9723263
    949,   36.8764305,   20.8169212
    950,   41.0462379,   18.2155552
    951,   40.7387848,   18.7634087
    952,   38.6724815,   21.0063171
    953,   40.8630676,   16.5991478
    954,   39.7355957,    20.945488
    955,    39.266613,   21.1163578
    956,   40.9630966,   16.1330948
    957,   40.9012108,    17.048378
    958,   40.9421921,   17.4986134
    959,   37.7820129,    20.894455
    960,   38.2429123,   20.8945236
    961,   41.0126572,   17.7005329
    962,   37.5628052,   20.9110508
    963,   39.6425552,   22.3146572
    964,   41.0426712,   19.5499916
    965,   37.2714653,   22.5882053
    966,   42.4629211,   18.2756691
    967,   42.4969444,   19.7693176
    968,    35.674778,   22.6630268
    969,   36.5897713,   22.7370453
    970,   35.7120743,   21.1145744
    971,   38.4374504,   22.2022743
    972,   42.2864799,   17.2637367
    973,   36.6924667,   22.3504772
    974,   38.8183594,   22.2790756
    975,   42.2474823,   18.7876225
    976,   36.2460823,   22.2602959
    977,   39.2084541,   22.2331066
    978,   42.2686462,   19.2937546
    979,   42.3528748,   16.3908215
    980,   40.2400208,   22.2581959
    981,   42.3189087,   20.2148933
    982,   41.4471321,   15.8193216
    983,   42.0124969,   15.8077202
    984,   36.6909447,   20.9138279
    985,   40.9563484,   18.7246723
    986,   43.2566376,   20.9658546
    987,   41.1881599,   17.6051559
    988,   37.7815742,   21.1330757
    989,   40.7044296,   17.5562267
    990,   37.7770081,   20.6630497
    991,   39.8084755,   22.4178391
    992,   41.0669899,   19.8659306
    993,   40.9094238,   19.3824463
    994,   39.5529251,   21.1032619
    995,   37.7808914,   21.3767414
    996,   41.3766823,   17.6898766
    997,   36.3685036,   20.7943707
    998,   40.8429985,   18.9501534
    999,   43.0101585,   20.9421577
   1000,   36.6112404,   21.3421345
   1001,   41.1801567,   18.7252827
   1002,   41.5456047,   16.0388737
   1003,   40.0507507,   21.0291729
   1004,   39.6668396,     21.27738
   1005,   41.8763428,   16.1433563
   1006,   37.4805069,   22.5548439
   1007,   42.4613266,   18.0192337
   1008,   42.4988708,    19.531786
   1009,   35.9069862,   22.4825611
   1010,   35.5287399,   20.9673901
   1011,   41.3854065,   15.5950041
   1012,   40.5704231,   22.5063744
   1013,   42.5189095,   20.4534321
   1014,   41.0839424,   19.2556992
   1015,   38.2855988,   22.0969162
   1016,   41.9557037,   17.2117119
   1017,   42.5014153,   20.6725636
   1018,   40.8291779,   22.6122475
   1019,     40.80299,   19.2070198
   1020,   41.4020538,   19.2064877
   1021,    37.997879,   21.5751362
   1022,   41.4091301,   17.4392452
   1023,   36.9357033,   21.3711929
   1024,   41.3533096,   18.4706745
   1025,   41.6445923,   16.2510242
   1026,    39.492775,   21.4126301
   1027,   42.1504135,   16.3310299
   1028,   37.0497246,   22.2820454
   1029,   42.1795006,   18.3041935
   1030,   35.6157494,   22.3106632
   1031,   42.2122536,   19.7788868
   1032,   35.7190819,   20.8182125
   1033,   35.3593597,   20.7998772
   1034,   36.2003632,    20.783823
   1035,   40.2565422,   20.9619942
   1036,   37.6614799,   22.3009262
   1037,   42.2523384,   17.7384243
   1038,   37.9112206,   21.9790497
   1039,   41.8825264,   17.4420166
   1040,   42.7580643,   20.9192543
   1041,   40.7656631,   22.2961311
   1042,   40.7554893,   22.8108025
   1043,   39.9434013,   20.7928181
   1044,   41.3980103,   19.5487576
   1045,   37.7950172,   21.6142063
   1046,   38.1762276,   21.3479977
   1047,   41.6394386,   17.6364727
   1048,   41.1563988,   17.0044861
   1049,   37.1878929,   21.1923485
   1050,   36.7251244,   21.5887299
   1051,   41.4665794,       18.698
   1052,   41.2591553,   18.2861519
   1053,   41.4414597,   16.3698235
   1054,   39.2492332,   21.3798656
   1055,   39.7671623,   21.4635372
   1056,   36.1180458,   21.3516884
   1057,   40.3205719,   21.1912518
   1058,   42.0456314,   17.6764336
   1059,   37.7778244,   22.0628796
   1060,   38.2445717,   21.7728672
   1061,    41.673851,   17.2218533
   1062,   40.9619293,    22.425808
   1063,   40.9188347,   22.1135979
   1064,   43.0111847,   20.7138004
   1065,   40.7436638,   23.0336971
   1066,   41.2514725,   19.9717846
   1067,   41.5862732,   19.1519299
   1068,   37.5809402,    21.398447
   1069,   41.4903831,   17.8969421
   1070,   41.3301582,   16.1524124
   1071,   40.0464325,   21.5410805
   1072,   39.3251648,   21.5319576
   1073,   36.0343018,   21.1014633
   1074,   36.3225594,   21.4396896
   1075,   40.4662514,   20.9641914
   1076,   40.2194862,   21.4443359
   1077,   37.8461189,   21.8101845
   1078,   41.8352509,   17.7586174
   1079,   39.1459084,   21.4667854
   1080,   39.3869209,   21.7105732
   1081,   40.7250328,   21.9448166
   1082,    40.930603,   22.8526096
   1083,   41.5950623,   19.7439785
   1084,   41.4188843,   18.9528236
   1085,     36.52174,   21.5184498
   1086,   40.3550797,   21.3627071
   1087,    40.472393,   20.7309151
   1088,   37.6835747,   21.8949947
   1089,   41.7966957,   17.9675713
   1090,   41.1684647,   22.5546513
   1091,   40.8688736,   20.9351768
   1092,   36.0157471,    21.517025
   1093,   41.4613075,   19.9732895
   1094,   41.8493767,   19.8453789
   1095,   36.2332611,    21.608963
   1096,   39.4684906,   21.8870068
   1097,   40.5151024,   21.9245415
   1098,   41.0827713,   21.9589043
   1099,   35.7932205,   21.4102707
   1100,   40.7989578,   21.4040146
   1101,    41.299015,   22.3689423
   1102,   40.7671127,   21.1438522
   1103,   41.9168968,   18.1128845
   1104,   37.3940773,   21.8917332
   1105,   38.9062843,   21.3665905
   1106,   41.9579544,   19.6627026
   1107,   35.6851387,    21.589386
   1108,   39.2604103,   21.9982262
   1109,   39.6720619,   21.7707882
   1110,   40.9403763,   21.8111248
   1111,   40.4019356,   22.0594826
   1112,   41.4890785,   22.4878006
   1113,   41.0753288,    21.017664
   1114,   41.7231331,   18.2299004
   1115,   41.3199768,   20.1595135
   1116,   41.9340286,   16.3615799
   1117,   40.8643875,   21.6212463
   1118,   41.7087975,    19.258482
   1119,   42.0396004,   19.9480476
   1120,   41.2474937,   22.0813351
   1121,    40.936348,   20.7617664
   1122,   41.8407249,   18.3703518
   1123,   37.0928726,    21.919487
   1124,    40.262146,   21.8996258
   1125,   41.0366135,   21.3818245
   1126,   36.8101273,    21.997057
   1127,   41.8395882,   18.6434422
   1128,   40.7482948,   20.6608486
   1129,   40.0849915,   22.0354805
   1130,   41.9828758,    18.479475
   1131,   36.9950104,   22.0800896
   1132,   41.3137131,   21.4679165
   1133,   41.3873329,   21.9282455
   1134,   41.4281578,   22.2011871
   1135,   41.4088745,   21.5857601
   1136,   40.5556564,   20.5405827
   1137,   39.8774529,   22.1560783
   1138,   41.5378265,   21.1711102
   1139,   41.4878464,   21.3675957
   1140,   39.7705536,   21.9651203
   1141,   41.2961807,    21.092823
   1142,   41.5315247,   20.8521099
   1143,   41.4089851,   20.7166042
   1144,   41.6633835,   20.8360405
   1145,   41.8063354,   21.1591759
   1146,   41.3928986,   20.4875546
   1147,   42.0324898,    20.861002
   1148,   41.7383308,    21.273386
   1149,   41.5479851,   20.2253323
   1150,   41.8077736,   20.6668091
   1151,   41.9167366,   21.3727665
   1152,   41.7685852,   20.4757252
   1153,     41.75383,   20.2626705
   1154,   41.8019676,   21.5008526
   1155,   42.3982201,   21.3562202
   1156,   41.9354019,   20.2991142
   1157,   41.7880135,   20.0509262
   1158,   42.5045776,   21.1455593
   1159,   41.8561287,    21.782938
   1160,    42.609623,   21.2928619
   1161,   42.2523003,   20.8724461
   1162,   42.5016479,   20.9001579
   1163,   41.9967766,   19.2062817
   1164,    36.149044,   21.7886181
   1165,   36.1881065,   20.6238461
   1166,   38.6644783,   22.0191441
   1167,   41.8739586,   16.7300835
   1168,   41.5428352,   18.3566437
   1169,   37.1799507,    21.416502
   1170,   41.4236374,   17.2095337
   1171,   38.1791039,    21.555563
   1172,   41.6979904,   21.9064903
   1173,   37.5759468,   21.1505203
   1174,   41.1649666,   17.8545513
   1175,   41.8901367,   17.0553265
   1176,   38.4098167,   21.9180508
   1177,   40.5315742,    20.217638
   1178,   36.5947533,   20.7365551
   1179,   41.3699837,    22.689045
   1180,    40.978775,   23.0227585
   1181,   38.8479538,   21.5637589
   1182,   42.0750656,   22.0093632
   1183,    41.001133,   20.0655842
   1184,   41.5367165,   16.5711899
   1185,   38.7537117,   21.3010654
   1186,    35.865097,   20.9653969
   1187,   41.1988716,   20.4703922
   1188,   40.8902321,   20.4152336
   1189,   35.8268433,   21.8903694
   1190,   42.7521935,   17.2472477
   1191,   38.3887215,   22.6961918
   1192,   43.2208328,   21.4448948
   1193,   41.4954948,   23.2461166
   1194,   35.4850845,   21.9726028
   1195,   40.4439774,   13.0714722
   1196,   34.8832932,   22.5048466
   1197,   42.5439453,   12.3665934
   1198,   42.7734528,   21.3098049
   1199,   43.2010956,   22.0037994
   1200,   41.9894295,   23.2730446
   1201,   39.1431389,   21.8226929
   1202,   42.5627327,   21.7016335
   1203,   43.1229935,   14.6127348
   1204,   41.9895821,    12.448679
   1205,    42.472496,   23.2518463
   1206,   43.2200127,    22.496315
   1207,   34.4213867,   20.3346939
   1208,   41.7206459,   18.8162136
   1209,   36.6655617,   21.7571831
   1210,   43.2295952,    22.991333
   1211,   42.9789925,   23.2416573
   1212,   35.7297363,   22.0997028
   1213,   40.4419289,     21.77672
   1214,   41.3397598,     16.70047
   1215,   42.6538696,     14.90909
   1216,   36.7405472,   22.1704693
   1217,   42.0314331,   18.7422867
   1218,   36.3050652,   22.0541954
   1219,   40.3631287,   15.0119257
   1220,   43.0073814,   21.1615238
   1221,   42.2305489,   20.6283474
   1222,     43.10252,   14.4629307
   1223,   41.9771957,   16.5538406
   1224,   41.8333855,   19.0919933
   1225,    41.665432,   22.5933933
   1226,   41.4284325,   18.1845417
   1227,   37.3834457,   21.3985806
   1228,   41.4488297,   16.9390392
   1229,   38.3520889,   21.3683071
   1230,   40.2682533,   23.2702827
   1231,    43.130455,   15.1561775
   1232,   41.2383995,   22.9374695
   1233,   43.2714691,   14.6695318
   1234,   40.8272018,   20.2740498
   1235,   41.8392677,   22.0820217
   1236,   38.6805077,   21.5199547
   1237,   42.9858742,   21.3701229
   1238,    41.516613,   23.0003872
   1239,   41.7980537,   16.8523216
   1240,   42.9486198,   22.0378246
   1241,   41.9862671,   23.0565853
   1242,   34.9012833,   22.8723526
   1243,   41.6419258,   16.7390194
   1244,   42.4470634,    23.000227
   1245,   42.9470367,   22.4942303
   1246,   42.7812233,   15.1054764
   1247,   40.7493782,   23.2661285
   1248,   36.0671349,   21.9864883
   1249,   42.9679298,   22.9893646
   1250,   38.9932327,   21.7320004
   1251,   42.2712746,   21.8231831
   1252,   41.8733215,   22.6600914
   1253,   36.5973854,   21.9307594
   1254,   40.3381882,   21.6051331
   1255,   41.9469032,   18.9214859
   1256,   41.8890419,   22.2810345
   1257,   42.9205551,   21.5528069
   1258,   35.2352715,   22.3860321
   1259,   38.6041679,   21.7742195
   1260,   38.3143311,   21.5227032
   1261,   41.7571716,   23.0420399
   1262,   42.9424438,   22.2590904
   1263,   42.2041588,   23.0242786
   1264,   41.8050346,   16.6129837
   1265,    42.705574,   22.9915714
   1266,   42.9564896,   22.7398815
   1267,   41.7974091,   22.8366814
   1268,   41.9116287,    22.473196
   1269,   42.7170448,    21.870285
   1270,   42.4346085,   22.0396786
   1271,   34.9381371,   23.0769501
   1272,   36.3736572,   21.8653965
   1273,   42.5272713,   21.8361969
   1274,   42.7122574,   22.0338039
   1275,   41.9711189,   22.8882523
   1276,   42.4116745,   22.7499294
   1277,   42.9137955,   21.8349094
   1278,   42.6639175,   22.4936752
   1279,   42.1366425,   22.5046329
   1280,   35.0508347,   23.3234196
   1281,   42.3495407,    22.291275
   1282,   42.3862305,   22.5104885
   1283,   34.5106201,   23.3333473
   1284,   42.8903122,    12.320425
   1285,   42.7209015,   12.1760197
   1286,   42.5368271,    12.069438
   1287,   32.2718315,   22.6487541
   1288,    32.097084,    21.017025
   1289,   32.2296791,   20.8394451
   1290,   42.5309601,   14.6982088
   1291,   42.8431282,   13.6317825
   1292,    42.240406,   12.7024345
   1293,   41.4335022,   12.6254711
   1294,   41.7711716,   12.4611101
   1295,   33.4424782,   22.8993855
   1296,   33.2233162,   22.8367939
   1297,    32.987648,   20.8138332
   1298,   32.5694809,     21.84869
   1299,   32.8003731,   22.3990021
   1300,   40.5704803,   12.9000463
   1301,   41.4721298,   12.1420584
   1302,   40.1558266,   14.0336809
   1303,   42.1940498,   12.2290907
   1304,   40.2078972,   17.7999058
   1305,   41.4767723,   12.3711882
   1306,   43.2595482,   13.2673912
   1307,   43.0048141,   12.7495108
   1308,   42.9789619,   12.9713268
   1309,   32.4043198,   22.4539623
   1310,   41.2764168,   15.0483389
   1311,   40.4642639,   14.2903337
   1312,   33.9148216,   20.1790104
   1313,   40.4843559,   14.6176987
   1314,   42.2138176,   12.4817562
   1315,   32.4077148,   21.8440552
   1316,   32.1380501,   22.0563183
   1317,   32.1862831,   21.8966465
   1318,   34.3062172,   20.4604282
   1319,    34.470665,   20.5410309
   1320,    39.263031,   20.2193546
   1321,   42.3300133,   12.1363831
   1322,   42.4098129,    12.333744
   1323,   33.5355377,    23.110178
   1324,   33.5693359,   23.2702274
   1325,   38.7622604,   20.1689987
   1326,   43.0078316,   14.6958513
   1327,   40.9981613,   23.2539387
   1328,   32.8759995,   20.5945435
   1329,   43.0752525,    13.407939
   1330,   42.6000786,    12.502017
   1331,   33.3444214,   20.1859913
   1332,   33.5047989,   20.1229343
   1333,   34.2976036,   23.2269154
   1334,   40.4178276,   15.4887085
   1335,   40.3789902,   15.6880589
   1336,   40.4435158,   18.3180218
   1337,    41.353653,   15.4200315
   1338,   39.2733841,   20.5169659
   1339,   42.8039513,   21.6807232
   1340,   38.9479332,   20.3050404
   1341,   40.5437469,    19.935791
   1342,   34.5606728,   20.3718491
   1343,   34.6990166,   20.4244251
   1344,   40.7116013,   15.4282808
   1345,   40.5473824,   15.7273779
   1346,   40.5612679,   15.9014597
   1347,   40.6890907,   18.1008663
   1348,   42.9001389,     15.87183
   1349,   42.6260529,   15.7030973
   1350,   42.7583389,   20.6959019
   1351,   42.7307281,   21.4623318
   1352,   40.5816002,   19.1273575
   1353,   40.6268921,   19.2840633
   1354,   38.9479256,   20.5974979
   1355,   39.8524742,   21.1454334
   1356,    40.675415,   20.3841133
   1357,   40.9852257,   15.6015215
   1358,   42.6555672,   21.5909843
   1359,   35.3198662,   23.1618328
   1360,   40.7670326,   15.9316282
   1361,   35.7459335,   20.5729084
   1362,   36.0247345,   20.8422852
   1363,   36.1449547,    20.981554
   1364,    35.518261,   23.1829433
   1365,   38.7942085,   20.4792767
   1366,    42.688324,   15.9842548
   1367,   40.8157578,   15.7785978
   1368,   40.6828575,   15.7548075
   1369,   35.2995224,   22.7091541
   1370,   41.0095329,   20.2624264
   1371,   41.2210579,   19.6963329
   1372,    38.967598,    20.897007
   1373,   41.1470413,    16.293169
   1374,   40.9020538,   15.9638624
   1375,   42.5454903,   21.9691219
   1376,   40.6336899,    20.967205
   1377,   39.9514122,   21.3475609
   1378,   40.9144897,   18.5422573
   1379,   40.9819031,    18.871666
   1380,   42.4712219,   15.6731882
   1381,    42.338707,   15.8220854
   1382,   40.8215561,   20.5187473
   1383,   40.6681366,   15.8644123
   1384,   41.0261269,   16.4127388
   1385,   42.3024902,   22.1174145
   1386,   41.0242004,   20.4375381
   1387,   36.2210541,   21.2014675
   1388,   35.3766022,   22.9818554
   1389,   42.3696861,    21.585743
   1390,   36.2283821,   20.8987255
   1391,   40.9922066,   20.6025581
   1392,   39.8638382,   21.6538944
   1393,   38.8482056,   21.0934734
   1394,   37.0419312,   22.8159637
   1395,   39.5717773,   22.8195019
   1396,   41.1872864,    20.286478
   1397,   41.1332932,   18.5269299
   1398,   41.1624336,   18.9533215
   1399,   36.0459633,   22.7753639
   1400,   41.3812866,   19.8416767
   1401,   41.1513901,    18.124752
   1402,   39.0021095,    21.179575
   1403,   41.0657082,   16.5755444
   1404,    41.113945,   16.7817554
   1405,   42.5308456,   21.5220451
   1406,   41.3630447,   20.2934036
   1407,   36.3043594,   21.0619621
   1408,   36.3524857,    20.930748
   1409,   36.5319557,   22.1140709
   1410,   42.2603226,   16.6721859
   1411,    38.750946,   22.5018559
   1412,   41.6880341,   17.8141613
   1413,    38.156353,   22.5571671
   1414,   36.6499672,   22.5376167
   1415,   42.1210938,    21.483942
   1416,   42.1928749,   21.2923298
   1417,   42.5603981,   21.4051971
   1418,   41.2161446,   19.1375961
   1419,   41.5592155,   19.3987103
   1420,   36.7359161,   21.1500187
   1421,   36.4961548,   20.8284359
   1422,   36.5138512,   20.9505119
   1423,   39.0431595,    21.421526
   1424,    38.405014,   21.1631393
   1425,    38.205143,   21.1289272
   1426,   39.9677353,   21.8443851
   1427,   41.1327095,   20.8425617
   1428,     41.02911,   21.1916733
   1429,    40.539444,   21.4499245
   1430,   41.7358704,   22.4614525
   1431,   41.6485291,   17.4329605
   1432,   41.6754646,   22.1447563
   1433,   41.5465508,   22.0440598
   1434,   36.4939346,   21.1107731
   1435,    41.394104,     20.08041
   1436,   41.5819778,   20.4712601
   1437,   41.1681747,   17.2308292
   1438,   38.1494865,   22.2844391
   1439,   38.6227188,   22.2425919
   1440,   41.8642464,   19.3765221
   1441,    42.044754,   19.4796562
   1442,    41.967308,   20.1223431
   1443,   41.9629173,   17.8512344
   1444,   41.9882927,   21.2221107
   1445,    42.027977,   21.0484924
   1446,   41.5155792,   21.7796154
   1447,   38.5157585,   21.4391117
   1448,   37.9860229,   21.3542995
   1449,   41.3328934,   20.9174442
   1450,   41.2076111,   21.3581314
   1451,   36.8799782,   21.8246384
   1452,   36.7575531,   21.4365921
   1453,   42.1579399,   20.0480804
   1454,   42.1363106,   20.1846561
   1455,   42.1165314,   20.3442745
   1456,   37.0610771,   22.4172249
   1457,   37.2395973,    22.372406
   1458,   41.8520546,   17.6247139
   1459,   41.9476929,   20.4860859
   1460,   42.0283051,   16.7242413
   1461,   37.1983376,    21.699379
   1462,   42.1037483,   19.3239574
   1463,    38.999733,   22.3396473
   1464,    39.393383,   22.3672733
   1465,   38.0163231,   22.1344585
   1466,   38.1487923,   21.9813404
   1467,   40.4734344,   22.3094845
   1468,   42.0837555,   17.4864559
   1469,   42.1077766,   17.3193073
   1470,   41.8378296,   21.0098171
   1471,   41.0996017,   21.7306347
   1472,   41.8367119,   20.8432369
   1473,   39.0066032,   21.5834274
   1474,   42.0883255,   18.5882874
   1475,   41.5108528,    20.978775
   1476,   42.0920639,   20.4781342
   1477,   42.0014496,   20.6674213
   1478,   41.9772415,   18.2533016
   1479,   41.6673164,   21.1000137
   1480,   41.6815681,    21.373415
   1481,    39.089138,    22.141758
   1482,   38.8352318,   21.7787476
   1483,   37.3850098,   21.5982666
   1484,   39.3579369,   22.1705189
   1485,    41.990551,   16.9100342
   1486,   37.1468201,   22.2012272
   1487,   37.2687721,   22.0709171
   1488,   41.3273659,   21.6947422
   1489,   41.2276802,   21.8263779
   1490,   38.0309181,   21.9089794
   1491,   37.6584854,   22.1337509
   1492,   37.5401154,   22.0483704
*Element, type=CPS4R
   1,  335,    8,  609,  585
   2,  585,  612,  334,  335
   3,  152,  712,  610,  600
   4,  331,  617,  592,    5
   5,  612,  600,    7,  334
   6,  604,  329,  330,  603
   7,  434,  469,  448,   99
   8,  824, 1315, 1298,  449
   9,  460,  433,   97, 1299
  10,  711,  460, 1299,  649
  11,  132,  639,  584,  131
  12,  584,    2,  326,  131
  13, 1287,    3,  327,  614
  14,  449,  433,  460,  817
  15, 1309, 1287,  614,  109
  16,  602,    4,  329,  604
  17,    8,  336,  172,  609
  18,   10,  583,  590,  337
  19,  701,  622,  472,  739
  20,  472,  457,  102,  437
  21,  153,  101,  436,  464
  22,  816,  836,  585,  609
  23,  583,  641, 1332,  590
  24,   10,  338,  658,  583
  25,  338,   11,  532,  658
  26,  154,  700,  103,  438
  27,  472,  437,  445,  739
  28,   11,  339,  872,  532
  29,  339,   12,  533,  872
  30,  814, 1342, 1207,  174
  31,  908,  825,  287,  930
  32,  106,  647,  447,  442
  33,  442,  447,  461,  107
  34,  819,  475,  456,  822
  35,  431,  108,  476, 1295
  36, 1296,   96,  431, 1295
  37,  652,  706,  755,  111
  38,  649,  432,  463,  132
  39,   12,  340,  175,  533
  40,  534,  175,  340,   13
  41,  746,  156, 1033,  865
  42,  287, 1010,  970,  930
  43, 1107,  908,  930, 1099
  44, 1030, 1212,  319, 1009
  45,  844,  134,  968,  135
  46,  717, 1364,  770,  844
  47,  402,   67,  567,  482
  48,   67,  401,  483,  567
  49,  401,   66,  566,  483
  50,  483,  566,  683,  115
  51,  707, 1271, 1242,  839
  52,  647,  321,  721, 1196
  53,  468,  843,  105,  440
  54,  155,  865,  812,  773
  55, 1033, 1010,  287,  863
  56,  535,  659,  341,   14
  57,  176,  659,  535,  698
  58,  743,  801,  698,  177
  59, 1074, 1095, 1092, 1056
  60, 1095,  302, 1272, 1164
  61,  976,  891, 1009,  319
  62,  117,  687,  730,  788
  63,  568,  484,  403,   68
  64,   68,  402,  482,  568
  65,  536,  660,  342,   15
  66,  177,  660,  536,  645
  67,  736,  796,  645,  178
  68, 1420,  911,  284, 1023
  69, 1452, 1000, 1420, 1023
  70, 1126, 1253, 1209, 1451
  71, 1414,  939,  318,  973
  72,  118,  688,  749,  805
  73,  569,  485,  404,   69
  74,   69,  403,  484,  569
  75,  537,  661,  343,   16
  76,  178,  661,  537,  631
  77,  726,  791,  631,  179
  78,  879,  928,  948,  159
  79, 1169, 1227, 1483, 1461
  80, 1487, 1104, 1492,  316
  81,  137,  965,  828, 1394
  82,  119,  689,  760,  809
  83,  570,  486,  405,   70
  84,  486,  570,  689,  119
  85,  538,  662,  344,   17
  86,  179,  662,  538,  627
  87,  159,  726,  784,  879
  88,  928,  962, 1173,  283
  89, 1045, 1021,  299, 1077
  90,  315, 1059, 1038, 1465
  91,  138, 1006,  895,  830
  92,  120,  690,  763,  808
  93,  571,  487,  406,   71
  94,  487,  571,  690,  120
  95,  539,  655,  345,   18
  96,  624,  539,  489,  181
  97,  781,  723,  161,  990
  98,  913,  960,  880,  162
  99, 1046, 1171, 1021, 1448
 100, 1465, 1038, 1490, 1466
 101, 1413,  932, 1438,  883
 102,  121,  691,  761,  804
 103,  572,  488,  407,   72
 104,  488,  572,  691,  121
 105,  654,  489,  346,   19
 106,  654,  491,  182,  626
 107,  783,  725,  162,  880
 108,  875,  952,  913,  162
 109,  298, 1447, 1236, 1259
 110,  314, 1176, 1259, 1166
 111, 1411,  934, 1439,  974
 112,  122,  692,  750,  787
 113,  573,  490,  408,   73
 114,  490,  573,  692,  122
 115,  666,  491,  347,   20
 116,  666,  493,  630, 1325
 117, 1325, 1340, 1365,  792
 118,  955,  915,  869,  917
 119, 1072, 1026,  296, 1080
 120, 1108, 1096,  312, 1484
 121,  892,  141,  938, 1464
 122,  123,  693,  733,  777
 123,  574,  492,  409,   74
 124,  492,  574,  693,  123
 125,  667,  493,  348,   21
 126,  667,  495, 1320,  183
 127,  644,  742,  797, 1338
 128,  994,  917,  164,  954
 129, 1055,  296, 1026, 1004
 130, 1426, 1140, 1109, 1392
 131,  142,  963,  991,  901
 132,  123,  777,  718,  694
 133,  575,  494,  410,   75
 134,  494,  575,  694,  124
 135,  668,  495,  349,   22
 136,  742,  644,  668,  714
 137,  868,  742,  714,  874
 138,  278, 1003, 1035, 1057
 139,  295, 1254, 1213, 1124
 140, 1097, 1081,  310, 1111
 141,  143,  943,  897,  841
 142, 1230,  708,  906,  125
 143,  576,  496,  411,   76
 144,  496,  576, 1230,  125
 145,  184,  774,  715,  873
 146,  643,  795,  741,  191
 147,  207, 1397, 1378,  912
 148,  208, 1168, 1114, 1122
 149, 1078, 1458, 1058, 1443
 150,  223,  933,  884, 1190
 151,  748,  681,  230,  802
 152,  392,   57,  557,  497
 153,  497,  557,  681,  237
 154,   57,  391,  498,  557
 155,  498,  556,  680,  230
 156,  224,  679,  764,  807
 157,  209, 1029,  966,  936
 158, 1127,  208, 1122, 1130
 159, 1067, 1020, 1084,  201
 160,  964,  909,  192,  993
 161,  184,  873, 1177,  910
 162,  867, 1341,  873,  715
 163,  714,  774,  184,  874
 164,  558,  499,  393,   58
 165,  499,  558,  685,  244
 166,  732,  685,  237,  789
 167,  921,  894, 1366,  243
 168, 1116, 1027,  235, 1223
 169, 1053, 1025,  234, 1184
 170,  956,  916,  232,  870
 171,  646,  798,  738,  231
 172,  238,  646,  500,  671
 173,  671,  500,  357,   30
 174,   30,  358,  501,  671
 175,  672,  501,  358,   31
 176,  245,  672,  505,  800
 177,  806,  811, 1313,  854
 178,  621,   84,  419,  651
 179,  651,  713,  871,  621
 180,   83,  418,  481,  254
 181,  833,  623,  478,  766
 182,  248,  900,  833,  766
 183, 1070, 1053,  233, 1373
 184,  670,  502,  356,   29
 185,   28,  356,  502,  669
 186,   27,  355,  504,  657
 187,   26,  354,  503,  543
 188,  656,  542,   25,  353
 189,  665,  541,   24,  352
 190,  664,  540,   23,  351
 191,  540,  663,  350,   23
 192,  543,  656,  353,   26
 193,  657,  503,  354,   27
 194,  669,  504,  355,   28
 195,  252,  505,  359,   32
 196,  806,  854,  252,  855
 197,  477,   85,  420,  259
 198,   85,  477,  458,  421
 199,  806,  855,  258,  753
 200,   33,  361,  506,  258
 201,  422,  648,  454,   87
 202,   86,  421,  848,  262
 203,   34,  362,  601,  673
 204,  480,  423,  452,  762
 205,  635,  594,  620, 1301
 206,  369,  370,  605,  587
 207,   39,  588,  605,  370
 208, 1286,  268, 1321,  619
 209, 1286, 1285,  598,  268
 210,   89,  455, 1292,  425
 211,  653,  640,  264,  599
 212,  593,  507,  271,  637
 213,  397,   62,  562,  507
 214,  860,  271,  885,  821
 215,   62,  396,  508,  562
 216,  508,  561, 1233,  260
 217,  905, 1231,  840, 1246
 218,  815,  827,  903,  249
 219,  983,  947,  249,  903
 220,  248,  947,  945,  900
 221,  752,  703,  815,  249
 222,   94,  451,  255,  430
 223,  453, 1290,  429,   93
 224, 1290,  453,  256, 1215
 225,  428,  467,  470,   93
 226,  256,  453,  823, 1326
 227,  702,  673,  601,  740
 228,  648,  262, 1195, 1300
 229,  596,  266,  636,  618
 230,  594,  596,  367,  368
 231,  768,  636,  762,  452
 232,  452,  423,   87,  454
 233,  366,   37,  618,  586
 234,   40,  373, 1284, 1285
 235,  591,  696,   41,  374
 236,  269,  756,  705, 1330
 237,  471,  466,   91,  426
 238,  264,  591,  374,  375
 239,  599,  264,  375,   42
 240,  607,  599,   42,  376
 241,   61,  395,  509,  561
 242, 1231,  509,  560,  682
 243,  846,  771,  719, 1348
 244,  979,  946,  894,  941
 245,  242, 1381,  902,  946
 246,   60,  394,  510,  560
 247,  510,  559,  686,  251
 248,  244,  685,  732,  779
 249,   56,  390,  511,  556
 250,  511,  555,  679,  224
 251,  218,  678,  758,  810
 252,  936,  889,  975,  209
 253, 1118, 1440,  194, 1419
 254, 1400, 1066,  992, 1371
 255,  166, 1128, 1121, 1091
 256, 1035,  165, 1087, 1075
 257,  166, 1087, 1136, 1128
 258,   55,  389,  512,  555
 259,  512,  554,  678,  218
 260,  211,  677,  747,  803
 261,  940,  893,  978,  202
 262,  194, 1106, 1094, 1083
 263, 1435, 1115,  186, 1066
 264,  276, 1428, 1113, 1141
 265,  277, 1102, 1100, 1429
 266, 1091, 1102, 1376,  166
 267,   54,  388,  513,  554
 268,  513,  553,  677,  211
 269,  204,  676,  731,  790
 270,  944,  188, 1031,  967
 271, 1442, 1156, 1153, 1157
 272, 1138, 1139,  276, 1141
 273, 1110, 1081,  294, 1117
 274,  387,   52,  552,  514
 275,  514,  552,  676,  204
 276,  780,  720,  847,  196
 277,  898,  981,  188,  944
 278, 1445, 1147, 1161,  274
 279, 1479, 1145, 1148, 1138
 280, 1134, 1101,  309, 1120
 281, 1467, 1012,  897,  980
 282, 1081, 1063, 1041,  310
 283,  386,   51,  551,  515
 284,  515,  551,  675,  197
 285,  190,  674,  709,  772
 286, 1017, 1013,  170, 1350
 287,  274, 1158, 1155, 1416
 288, 1159,  292, 1154,  291
 289, 1101, 1090, 1062,  309
 290, 1018, 1042,  144, 1012
 291,  385,   50,  550,  516
 292,  516,  550,  674,  190
 293, 1350, 1064,  999, 1040
 294, 1198,  273, 1220, 1237
 295,  291, 1251, 1182, 1159
 296, 1235, 1256,  308, 1432
 297,  126, 1327, 1180, 1232
 298, 1082, 1180, 1065, 1042
 299,  384,   49,  549,  517
 300,   49,  383,  518,  549
 301,  986,  518,  548,  272
 302, 1192,  521,  547,  289
 303, 1199,  531,  546,  305
 304, 1206,  530,  545,  149
 305, 1210,  529,  544,  130
 306,  417,   82,  582,  519
 307,  417,  519,  378,   63
 308,   82,  416,  520,  582
 309, 1211,  520,  581,  129
 310,  149, 1210, 1249, 1266
 311,  305, 1206, 1245, 1262
 312, 1199, 1240, 1277,  289
 313, 1198, 1237, 1257, 1351
 314,   48,  382,  521,  548
 315,   81,  415,  522,  581
 316, 1205,  522,  580,  128
 317, 1244, 1205,  128, 1263
 318, 1282, 1281,  306, 1278
 319, 1182, 1251, 1270, 1385
 320,   80,  414,  523,  580
 321, 1200,  523,  579,  127
 322, 1200,  127, 1261, 1241
 323, 1225, 1430, 1268, 1252
 324,   79,  413,  524,  579
 325, 1193,  524,  578,  126
 326, 1238, 1193,  126, 1232
 327,   78,  412,  525,  578
 328,  400,   65,  565,  526
 329,   65,  399,  527,  565
 330,  818,  835,  837,  822
 331,  565,  114, 1280,  526
 332,   64,  398,  528,  564
 333,  113,  864,  819, 1333
 334,  766,  473,  752,  248
 335,  430,  255,  473,   95
 336,  467,  428,   92,  459
 337,  459,  271,  860,  467
 338,  637,  271,  459,  926
 339,  820, 1329,  471,  734
 340,  462,   90,  425, 1292
 341, 1204,  455,  474, 1294
 342,  462,  757, 1330,  705
 343,  757,  462, 1292, 1314
 344,  474,  424,  444, 1294
 345,  475,  108,  443,  456
 346,  107,  461,  456,  443
 347,  441,  321,  647,  106
 348,  468,  450,  862,  886
 349,  288,  104,  439,  465
 350, 1289,  699,  597, 1288
 351,  100,  435,  446, 1297
 352,  706,  652,  110,  613
 353,  111,  638,  589,  652
 354, 1359,  707,  839, 1388
 355,  128, 1200, 1241, 1263
 356,  129, 1205, 1244, 1265
 357,  544,  529,  379,   44
 358, 1249, 1211,  129, 1265
 359,  320, 1030,  942, 1258
 360,  730,  687,  116,  778
 361,  749,  688,  117,  788
 362,  760,  689,  118,  805
 363,  763,  690,  119,  809
 364,  761,  691,  120,  808
 365,  750,  692,  121,  804
 366,  733,  693,  122,  787
 367,  845,  718,  777, 1395
 368,  708, 1230,  124,  769
 369, 1112, 1179, 1090, 1101
 370, 1282, 1276,  147, 1279
 371,   46,  380,  530,  546
 372, 1245, 1206,  149, 1266
 373,  103,  700,  465,  439
 374, 1032, 1186,  970, 1010
 375, 1165, 1034, 1362,  157
 376,  911,  949,  159,  948
 377,  161,  925,  959,  990
 378,  783,  880,  161,  723
 379, 1365,  162,  725,  792
 380,  869,  163, 1338,  797
 381, 1382, 1128, 1136, 1356
 382, 1146, 1143,  167, 1187
 383, 1152, 1150,  168, 1436
 384,  898, 1013,  169,  981
 385,  709,  674,  931,  907
 386, 1343,  861,  155,  716
 387,  176,  813,  534,  659
 388,  539,  624,  180,  655
 389,  654,  626,  181,  489
 390,  909,  992, 1183,  185
 391,  194, 1083, 1044, 1419
 392, 1157, 1094, 1119, 1442
 393,  967,  847,  189,  944
 394,  190,  772,  720,  675
 395,  964,  993, 1014,  193
 396, 1067, 1118, 1419, 1020
 397, 1440, 1163, 1462, 1441
 398,  893, 1008,  195,  978
 399,  731,  676,  197,  780
 400,  540,  643,  191,  663
 401,  633,  793,  737,  198
 402,  950,  882,  927, 1401
 403, 1069,  996, 1047, 1412
 404, 1458, 1039, 1468, 1058
 405,  229,  937,  890,  923
 406,  237,  681,  748,  789
 407, 1001, 1397, 1024, 1051
 408, 1001, 1051, 1084, 1398
 409, 1255, 1224,  201, 1208
 410,  203,  940,  889,  858
 411,  747,  677,  204,  790
 412,  541,  633,  198,  664
 413, 1336,  727,  205,  629
 414,  961, 1174,  927,  213
 415, 1437, 1170, 1022,  221
 416, 1239, 1485, 1175,  227
 417, 1410,  890,  937,  228
 418,  912, 1378,  206,  785
 419, 1089, 1103, 1114,  215
 420,  216, 1103, 1089, 1443
 421,  966,  829,  210,  936
 422,  758,  678,  211,  803
 423,  542,  629,  205,  665
 424,  904,  850,  212, 1304
 425,  914,  957,  881,  226
 426, 1243, 1228, 1214, 1184
 427, 1485, 1239, 1167, 1460
 428,  213,  927,  882, 1347
 429, 1052, 1024, 1397,  207
 430,  933,  896, 1037,  222
 431, 1037,  896, 1007,  216
 432,  764,  679,  218,  810
 433, 1304,  625,  782,  904
 434,  628,  786,  724,  219
 435,  953,  914,  226,  876
 436, 1264, 1243, 1184,  234
 437,  220,  924,  958,  989
 438,  221, 1022,  996,  987
 439,  230,  680,  759,  802
 440,  759,  680,  224,  807
 441,  628,  219,  657,  504
 442,  632,  794,  728,  225
 443,  916, 1384, 1403,  953
 444, 1170, 1437, 1048, 1228
 445, 1061,  227, 1175, 1016
 446,  937,  884,  972,  228
 447,  632,  231,  738,  794
 448,  646,  231,  670,  500
 449,  799, 1345, 1335, 1334
 450,  713,  722,  838,  767
 451,  722, 1310,  623,  247
 452,  798,  870,  232,  738
 453, 1357,  918, 1367,  866
 454,  900, 1011, 1337,  833
 455,  501,  697,  238,  671
 456,  745,  834,  246, 1344
 457,  254,  722,  713,  651
 458,  246,  838,  919, 1344
 459,  751,  703,  255,  451
 460,  815,  703,  751,  826
 461,  710,  682,  251,  771
 462, 1219,  252,  854,  253
 463,  848,  421,  458,  642
 464,  848,  642,  775,  877
 465,  608,  695,  364,  365
 466,  648,  422,   86,  262
 467, 1040,  999, 1220,  273
 468, 1013, 1017, 1221,  169
 469, 1445, 1470, 1472, 1147
 470,  278, 1076, 1071, 1377
 471,  279,  994, 1004, 1026
 472, 1054,  279, 1026, 1072
 473, 1105, 1181, 1236, 1185
 474,  995, 1068, 1173,  988
 475,  284, 1049, 1169, 1023
 476, 1408, 1422, 1434, 1407
 477, 1358, 1405, 1417, 1351
 478, 1444, 1145, 1470, 1445
 479, 1446, 1488, 1135,  292
 480,  294, 1081, 1097, 1213
 481,  296, 1109, 1096, 1080
 482,  297, 1072, 1080, 1201
 483, 1482,  313, 1166, 1259
 484, 1490,  299, 1060, 1466
 485, 1077, 1038, 1059, 1088
 486,  300, 1088, 1492, 1104
 487, 1253, 1126, 1216, 1409
 488, 1095, 1164,  303, 1092
 489,  843,  468,  886,  776
 490, 1189, 1212, 1194,  304
 491,   47,  381,  531,  547
 492, 1240, 1199,  305, 1262
 493, 1235, 1172, 1159, 1182
 494,  943,  311,  980,  897
 495,  977, 1484, 1464,  938
 496, 1411,  974, 1463,  888
 497,  971,  883, 1438, 1015
 498, 1036,  895, 1006,  316
 499,  317, 1028, 1456,  935
 500,  887, 1414,  973,  935
 501, 1399,  135,  968, 1009
 502,  541,  664,  351,   24
 503,  542,  665,  352,   25
 504,  323,    1,  652,  589
 505,  110,  324,  325,  613
 506,  613,  325,    2,  584
 507,  131,  326,    3, 1287
 508,  328,  611,  614,  327
 509,    4,  602,  611,  328
 510,  603,  150, 1317,  604
 511,    5,  592,  603,  330
 512,  617,  331,  332, 1288
 513, 1289, 1288,  332,    6
 514,  336,  337,  590,  172
 515,  360,   33,  258,  855
 516,  261,  606,  363,   35
 517,  616,  608,  365,   36
 518,  586,  616,   36,  366
 519,  587,  620,   38,  369
 520,  588, 1303,  634,  605
 521,   39,  371,  619,  588
 522, 1197, 1330,  757, 1322
 523,  372,   40, 1285, 1286
 524, 1307,  756,  696,  591
 525,  593,  595,  377,   43
 526,  507,  593,   43,  397
 527,  519,  544,   44,  378
 528,  529,  545,   45,  379
 529,  547,  531, 1199,  289
 530,  548,  521, 1192,  272
 531,  549,  518,  986,  171
 532,  674,  550,  517,  931
 533,  675,  551,  516,  190
 534,  676,  552,  515,  197
 535,  677,  553,  514,  204
 536,  678,  554,  513,  211
 537,  679,  555,  512,  218
 538,  511,  224,  680,  556
 539,  498,  230,  681,  557
 540,  497,  558,   58,  392
 541,  499,  559,   59,  393
 542,  510,  251,  682,  560
 543,  257, 1233,  561,  509
 544,  562,  508,  260,  885
 545,  528,  398,    9,  563
 546,  528,  864,  113,  564
 547,  565,  527, 1283,  114
 548,  683,  566,  526, 1280
 549,  684,  567,  483,  115
 550,  485,  570,   70,  404
 551,  486,  571,   71,  405
 552,  487,  572,   72,  406
 553,  488,  573,   73,  407
 554,  490,  574,   74,  408
 555,  492,  575,   75,  409
 556,  494,  576,   76,  410
 557,  496,  577,   77,  411
 558,  578,  525, 1327,  126
 559,  127,  579,  524, 1193
 560,  128,  580,  523, 1200
 561,  581,  522, 1205,  129
 562,  130,  582,  520, 1211
 563,   83,  254,  651,  419
 564,  259,  420,   84,  621
 565,  444,  424,   88, 1293
 566,   90,  462,  650,  426
 567,  427,   91,  466, 1291
 568,  476,  108,  475,  112
 569,  463,  432,   96, 1296
 570,  434,   98, 1298,  469
 571,  479,   99,  448,  765
 572,  464,  436,  100, 1297
 573,  101,  153,  445,  437
 574,  438,  102,  457,  154
 575,  450,  104,  288,  825
 576,  441,  105,  843,  321
 577,   88,  423,  480, 1293
 578,  474,  455,   89,  424
 579,  445,  153,  704,  641
 580,  435,   99,  479,  446
 581,  818,  461,  447,  133
 582,  824,  449,  817,  832
 583,   98,  433,  449, 1298
 584,  440,  104,  450,  468
 585, 1290, 1215,  751,  451
 586,  451,   94,  429, 1290
 587,  470,  823,  453,   93
 588,  740,  601,  642,  458
 589,   92,  427, 1291,  459
 590,  822,  456,  461,  818
 591,  265,  650,  462,  705
 592,  153,  464,  836,  704
 593,  773,  812,  465,  700
 594,  926, 1329,  270,  637
 595,  860,  821,  470,  467
 596,  776,  886, 1194,  320
 597,  469,  150,  878,  448
 598,  470,  821, 1222,  823
 599,  471,  426,  650,  734
 600,  820,  734,  653, 1306
 601,  445,  641, 1312,  739
 602,  473,  255,  703,  752
 603,  267, 1294,  444, 1305
 604,  634, 1204, 1294,  267
 605,  112, 1324, 1323,  476
 606, 1296, 1295,  754,  755
 607,  702,  477,  753, 1302
 608,  702,  740,  458,  477
 609,  418,   95,  478,  481
 610,  478,   95,  473,  766
 611,  699, 1289,  610,  712
 612,  729,  266,  635, 1305
 613,  482,  116,  687,  568
 614,  484,  568,  687,  117
 615,  482,  567,  684,  116
 616,  484,  117,  688,  569
 617,  485,  569,  688,  118
 618,  485,  118,  689,  570
 619,  486,  119,  690,  571
 620,  691,  572,  487,  120
 621,  692,  573,  488,  121
 622,   18,  346,  489,  539
 623,  693,  574,  490,  122
 624,   19,  347,  491,  654
 625,  694,  575,  492,  123
 626,   20,  348,  493,  666
 627,  183,  630,  493,  667
 628,   21,  349,  495,  667
 629,  495,  668,  644, 1320
 630,  577, 1247, 1327,  525
 631,  685,  558,  497,  237
 632,  391,   56,  556,  498
 633,  686,  559,  499,  244
 634,   29,  357,  500,  670
 635,  245,  697,  501,  672
 636,  231,  632,  502,  670
 637,  669,  502,  632,  225
 638,  219,  625,  503,  657
 639,  543,  503,  625, 1304
 640,  225,  628,  504,  669
 641,   31,  359,  505,  672
 642,  245,  800,  745, 1334
 643,  673,  506,  361,   34
 644,  396,   61,  561,  508
 645,  395,   60,  560,  509
 646, 1222,  260, 1233, 1203
 647,  559,  510,  394,   59
 648,  390,   55,  555,  511
 649,  389,   54,  554,  512
 650,  388,   53,  553,  513
 651,   53,  387,  514,  553
 652,   52,  386,  515,  552
 653,   51,  385,  516,  551
 654,   50,  384,  517,  550
 655,  549,  171,  931,  517
 656,  383,   48,  548,  518
 657,  416,   81,  581,  520
 658,  582,  130,  544,  519
 659,  382,   47,  547,  521
 660,  415,   80,  580,  522
 661,  414,   79,  579,  523
 662,  413,   78,  578,  524
 663,  577,  525,  412,   77
 664,   66,  400,  526,  566
 665,  399,   64,  564,  527
 666, 1333,  837, 1283,  113
 667,  113, 1283,  527,  564
 668,  545,  530,  380,   45
 669,  546,  531,  381,   46
 670,  622,  701,  173,  174
 671,  658,  532,  173, 1312
 672, 1319,  716,  700,  154
 673,  872,  533,  814,  174
 674,  659,  534,   13,  341
 675,  813,  176,  746,  865
 676,  660,  535,   14,  342
 677,  177,  698,  535,  660
 678,  661,  536,   15,  343
 679,  536,  661,  178,  645
 680,  662,  537,   16,  344
 681,  537,  662,  179,  631
 682,  655,  538,   17,  345
 683,  538,  655,  180,  627
 684,  540,  664,  198,  643
 685,  541,  665,  205,  633
 686,  542,  656,  212,  629
 687,  656,  543, 1304,  212
 688,  545,  529, 1210,  149
 689,  546,  530, 1206,  305
 690,  615,  322,  323,  589
 691,  563,  112,  864,  528
 692,  494,  124, 1230,  576
 693,  496,  125, 1247,  577
 694, 1312,  641,  583,  658
 695, 1331, 1332,  641,  704
 696,  639,  706,  613,  584
 697,  704,  836,  816, 1331
 698,  600,  612, 1328,  152
 699,  648, 1300,  263,  454
 700, 1303,  588,  619, 1321
 701,  267,  587,  605,  634
 702,  615,  589,  638, 1324
 703,  591,  264,  640, 1307
 704,  595,  593,  637,  270
 705,  620,  594,  368,   38
 706,  266,  596,  594,  635
 707, 1306,  607,  595,  270
 708,  376,  377,  595,  607
 709,    1,  324,  110,  652
 710,   37,  367,  596,  618
 711,    6,  333,  610, 1289
 712,  371,  372, 1286,  619
 713,  333,    7,  600,  610
 714,  606,  601,  362,  363
 715,  642,  601,  606,  775
 716, 1316,  602,  604, 1317
 717,  832,  611,  602, 1316
 718,  606,  261,  877,  775
 719,  109,  614,  611,  832
 720,  836, 1328,  612,  585
 721, 1309,  711,  131, 1287
 722,  615,  563,    9,  322
 723,  586,  768,  263,  616
 724,  597,  592,  617, 1288
 725, 1305,  635, 1301,  267
 726,  621,  871, 1313,  811
 727, 1207, 1318,  622,  174
 728,  624,  181,  723,  781
 729,  849,  180,  624,  781
 730,  625,  219,  724,  782
 731,  782,  724,  220,  989
 732,  626,  182,  725,  783
 733,  626,  783,  723,  181
 734,  849,  784,  627,  180
 735,  627,  784,  726,  179
 736,  628,  225,  728,  786
 737,  786,  728,  226,  881
 738,  785, 1336,  850, 1347
 739,  785,  206,  727, 1336
 740,  735, 1340,  183, 1320
 741, 1325,  792,  725,  182
 742,  631,  791,  736,  178
 743,  633,  205,  727,  793
 744, 1204,  634, 1303, 1314
 745,  712,  152,  446,  479
 746,  151,  765,  448,  878
 747,  603,  592,  878,  150
 748,  762,  636,  266,  729
 749,  636,  768,  586,  618
 750,  754,  638,  111,  755
 751,  638,  754, 1323, 1324
 752,  706,  639,  132,  463
 753,  756, 1307,  265,  705
 754,  173,  701,  739, 1312
 755,  643,  198,  737,  795
 756,  645,  796,  743,  177
 757,  646,  238,  744,  798
 758,  776,  721,  321,  843
 759,  133,  447,  647, 1196
 760,  695,  608, 1300, 1195
 761,   97,  432,  649, 1299
 762, 1308,  265, 1307,  640
 763, 1306,  653,  599,  607
 764,   22,  350,  663,  774
 765,  663,  191,  715,  774
 766,  182,  491,  666, 1325
 767,  668,   22,  774,  714
 768,  506,  673,  702, 1302
 769, 1231,  682,  710,  840
 770,  707, 1280,  114, 1271
 771,  684,  115, 1364,  717
 772,  719,  686,  244,  779
 773,  695,  261,   35,  364
 774, 1284,  696,  756,  269
 775,  373,   41,  696, 1284
 776, 1334,  745, 1344,  799
 777,  801,  746,  176,  698
 778,  765,  699,  712,  479
 779,  597,  699,  765,  151
 780,  773,  700,  716,  155
 781,  477,  259, 1311,  753
 782,  752,  249,  947,  248
 783,  755,  706,  463, 1296
 784,  835, 1242, 1271,  114
 785,  841,  708,  769,  143
 786,  906,  708,  841,  144
 787,  842,  709,  907,  170
 788,  772,  709,  842,  189
 789,  826, 1246,  840,  250
 790,  711,  649,  132,  131
 791,  253,  871,  713,  767
 792, 1310,  722,  254,  481
 793,  715,  191,  741,  867
 794, 1319, 1318, 1207, 1342
 795,  472,  622, 1318,  457
 796,  717,  844,  135,  778
 797,  116,  684,  717,  778
 798,  769,  718,  845,  143
 799,  124,  694,  718,  769
 800,  251,  686,  719,  771
 801,  847,  720,  772,  189
 802,  197,  675,  720,  780
 803,  877, 1195,  262,  848
 804, 1258,  899, 1196,  721
 805,  839, 1242,  899, 1369
 806,  838,  722,  247,  919
 807,  791,  726,  159,  949
 808,  793,  727,  206,  951
 809,  444, 1293,  729, 1305
 810,  480,  762,  729, 1293
 811,  730,  778,  135, 1399
 812,  851,  788,  730, 1399
 813,  853,  731,  780,  196
 814,  790,  731,  853,  203
 815,  921,  732,  789,  236
 816,  733,  787,  852,  920
 817,  650,  265, 1308,  734
 818,  640,  653,  734, 1308
 819,  163, 1354,  735, 1338
 820,  736,  158, 1165,  796
 821,  795,  737, 1352, 1353
 822,  794,  738,  232,  876
 823,  867,  741,  192,  909
 824,  164,  797,  742,  868
 825,  743,  157, 1361,  801
 826,  238,  697, 1335,  744
 827,  798,  744, 1346,  870
 828,  858,  747,  790,  203
 829,  803,  747,  858,  210
 830,  923,  748,  802,  229
 831,  749,  788,  969,  856
 832,  805,  749,  856, 1394
 833,  750,  804,  857,  922
 834,  751, 1215, 1246,  826
 835,  464, 1297, 1328,  836
 836,  806,  753, 1311,  811
 837, 1302,  753,  258,  506
 838,  476, 1323,  754, 1295
 839,  455, 1204, 1314, 1292
 840,  268,  598, 1197, 1322
 841,  829,  758,  803,  210
 842, 1190,  759,  807,  223
 843,  828,  760,  805, 1394
 844,  859,  761,  808,  139
 845,  761,  859, 1191,  804
 846,  830,  763,  809,  138
 847,  808,  763,  830,  139
 848,  831,  764,  810,  217
 849,  807,  764,  831,  223
 850,  834,  745,  800, 1219
 851,  768,  452,  454,  263
 852,  770, 1364, 1359, 1388
 853,  134,  844,  770, 1388
 854,  771,  250,  840,  710
 855,  776,  320, 1258,  721
 856, 1348,  243, 1366,  846
 857,  850,  904,  213, 1347
 858,  160,  879,  784,  849
 859,  629,  212,  850, 1336
 860,  785, 1347,  882,  912
 861,  220,  724,  786,  881
 862,  922,  852,  787,  750
 863,  736,  791, 1178,  158
 864, 1365, 1354,  875,  162
 865,  793,  199, 1352,  737
 866,  226,  728,  794,  876
 867, 1353, 1352,  199, 1019
 868,  741,  795, 1353,  192
 869, 1034, 1390, 1363, 1362
 870,  157,  743,  796, 1165
 871,  869,  797,  164,  917
 872,  799, 1344,  866,  239
 873, 1368, 1345,  799,  239
 874,  505,  252, 1219,  800
 875, 1032,  156, 1361,  157
 876,  746,  801, 1361,  156
 877,  857,  804, 1191,  140
 878,  855,  252,   32,  360
 879,  809,  760,  828,  138
 880,  810,  758,  829,  217
 881,  259,  621,  811, 1311
 882,  825,  288,  863,  287
 883,  288,  465,  812,  863
 884,  861,  814,  533,  175
 885,  175,  534,  813,  861
 886,  460,  711, 1309,  817
 887,  827,  815,  826,  250
 888,  816,  609,  172, 1331
 889, 1332, 1331,  172,  590
 890,  109,  832,  817, 1309
 891,  835,  818,  133, 1242
 892,  475,  819,  864,  112
 893,  466,  471, 1329,  926
 894,  260, 1222,  821,  885
 895, 1333,  819,  822,  837
 896,  257, 1326, 1203, 1233
 897, 1315,  150,  469, 1298
 898,  825,  908,  862,  450
 899, 1380,  827,  250, 1349
 900,  965,  137, 1456, 1457
 901,  896,  831,  217, 1007
 902,  824,  832, 1316, 1317
 903,  623,  833, 1337,  247
 904,  253,  767,  834, 1219
 905,  834,  767,  838,  246
 906,  837,  835,  114, 1283
 907,  866, 1344,  919, 1357
 908, 1196,  899, 1242,  133
 909, 1388,  839, 1369,  134
 910,  898,  842,  170, 1013
 911,  942,  968,  134, 1369
 912,  142,  901,  845, 1395
 913, 1366,  902, 1349,  846
 914,  250,  771,  846, 1349
 915,  851,  136,  969,  788
 916,  141,  892,  920,  852
 917,  894,  921,  236,  941
 918,  887,  856,  969, 1414
 919,  137, 1394,  856,  887
 920,  857, 1411,  888,  922
 921,  859, 1413,  883, 1191
 922,  885,  271,  507,  562
 923,  813,  865,  155,  861
 924,  886,  862,  304, 1194
 925,  812,  865, 1033,  863
 926, 1010, 1033,  156, 1032
 927,  919,  247,  929, 1357
 928,  868, 1043,  954,  164
 929,  955,  917,  994,  279
 930,  240,  956, 1374,  918
 931, 1313,  871,  253,  854
 932,  872,  174,  173,  532
 933,  874,  184,  910,  165
 934,  868,  874,  165, 1043
 935, 1393, 1372,  915, 1402
 936, 1393,  952,  875, 1372
 937,  876,  232,  916,  953
 938,  877,  261,  695, 1195
 939,  879,  160,  962,  928
 940,  948,  928,  283, 1049
 941,  880,  960,  925,  161
 942,  881,  957,  924,  220
 943, 1052, 1401,  214, 1226
 944,  934,  883,  971, 1439
 945,  140, 1191,  883,  934
 946,  972,  884,  933,  222
 947,  229, 1190,  884,  937
 948,  922,  888,  141,  852
 949,  975,  889,  940,  202
 950,  210,  858,  889,  936
 951,  236,  923,  890,  941
 952,  939,  891,  976,  318
 953,  136,  851,  891,  939
 954, 1464,  963,  142,  892
 955,  920,  892,  142, 1395
 956,  196, 1008,  893,  853
 957,  203,  853,  893,  940
 958,  932,  895, 1036,  315
 959,  139,  830,  895,  932
 960,  223,  831,  896,  933
 961,  144,  841,  897, 1012
 962,  189,  842,  898,  944
 963, 1258,  942, 1369,  899
 964,  900,  945,  982, 1011
 965, 1011,  929,  247, 1337
 966,  943,  901,  991,  311
 967,  143,  845,  901,  943
 968,  946,  902, 1366,  894
 969, 1380, 1349,  902, 1381
 970,  945,  947,  983,  241
 971,  904,  782,  989,  213
 972,  160,  849,  781,  990
 973, 1203, 1326,  823, 1222
 974, 1231,  905,  257,  509
 975,  144, 1042, 1065,  906
 976,  999, 1064,  171,  986
 977,  304,  862,  908, 1107
 978, 1371,  964,  193, 1044
 979,  909,  185, 1341,  867
 980, 1136,  910, 1177, 1356
 981,  984,  949,  911, 1420
 982, 1378,  985,  951,  206
 983,  925,  960, 1425,  282
 984,  957, 1048, 1437,  924
 985,  163,  869,  915, 1372
 986, 1402, 1105, 1185, 1393
 987, 1184, 1214,  233, 1053
 988,  279, 1054,  280,  955
 989, 1367,  918, 1374, 1360
 990, 1053, 1070, 1002, 1025
 991,  777,  733,  920, 1395
 992,  243,  779,  732,  921
 993,  923,  236,  789,  748
 994,  987,  996, 1174,  961
 995,  926,  459, 1291,  466
 996,  987,  961,  958,  221
 997,  214, 1401,  927, 1174
 998,  962,  959,  988, 1173
 999,  929,  240,  918, 1357
1000, 1092, 1099,  286, 1056
1001,  907,  931,  171, 1064
1002,  315, 1465, 1438,  932
1003, 1457, 1456, 1028, 1486
1004,  137,  887,  935, 1456
1005,  938,  141,  888, 1463
1006,  977,  938, 1463, 1481
1007,  979,  941,  890, 1410
1008, 1031,  195, 1008,  967
1009,  945,  241, 1002,  982
1010, 1381,  242,  983,  903
1011, 1381,  903,  827, 1380
1012,  284,  911,  948, 1049
1013,  158, 1178, 1421,  997
1014,  949,  984, 1178,  791
1015,  950,  207,  912,  882
1016,  998,  951,  985, 1379
1017,  913,  952,  281, 1424
1018,  953, 1403, 1404,  914
1019,  954, 1043, 1003, 1355
1020, 1355, 1003,  278, 1377
1021,  955,  280, 1402,  915
1022,  956, 1373, 1384,  916
1023, 1404, 1048,  957,  914
1024,  961,  213,  989,  958
1025,  962,  160,  990,  959
1026,  925,  282,  988,  959
1027, 1046, 1425, 1424, 1229
1028, 1129, 1137, 1140, 1426
1029,  993,  192, 1353, 1019
1030, 1400, 1371, 1044, 1083
1031, 1486, 1487,  316, 1457
1032,  138,  828,  965, 1006
1033, 1007,  966, 1029,  216
1034,  217,  829,  966, 1007
1035,  196,  847,  967, 1008
1036, 1030, 1009,  968,  942
1037, 1414,  969,  136,  939
1038,  970,  286, 1099,  930
1039, 1439,  971,  314, 1166
1040, 1469, 1016,  228,  972
1041,  317, 1216, 1126, 1131
1042,  935,  973, 1216,  317
1043,  974, 1439, 1166,  313
1044, 1481, 1463,  974,  313
1045, 1474, 1217, 1127, 1130
1046,  228, 1485, 1460, 1410
1047, 1248, 1218,  976,  319
1048, 1484,  312,  963, 1464
1049, 1163, 1440, 1118, 1224
1050, 1005,  242, 1027, 1116
1051,  946,  979, 1027,  242
1052, 1012, 1467,  310, 1041
1053, 1156, 1455, 1476, 1459
1054,  982,  240,  929, 1011
1055,  983,  242, 1005,  241
1056, 1422,  984, 1420, 1434
1057, 1397, 1001,  985, 1378
1058, 1379,  985, 1001, 1398
1059,  999,  986,  272, 1220
1060,  221,  958,  924, 1437
1061,  988,  282, 1448,  995
1062,  186, 1183,  992, 1066
1063,  992,  909,  964, 1371
1064, 1014,  993, 1019,  200
1065, 1355, 1004,  994,  954
1066,  995, 1448, 1021, 1045
1067, 1068,  995, 1045,  300
1068, 1022, 1431, 1047,  996
1069, 1174,  996, 1069,  214
1070, 1422, 1408,  997, 1421
1071, 1421, 1178,  984, 1422
1072, 1050, 1085, 1000, 1452
1073,  208, 1051, 1024, 1168
1074,  240,  982, 1002, 1070
1075, 1002,  241, 1005, 1025
1076,  165, 1035, 1003, 1043
1077, 1377, 1055, 1004, 1355
1078,  891,  851, 1399, 1009
1079, 1018, 1012, 1041, 1062
1080, 1017, 1350, 1040, 1162
1081, 1014,  200, 1398, 1418
1082, 1176, 1015, 1466, 1060
1083,  314,  971, 1015, 1176
1084, 1431, 1039, 1458, 1047
1085, 1469,  972,  222, 1468
1086, 1162, 1158,  274, 1161
1087, 1147, 1477, 1221, 1161
1088, 1042, 1018,  145, 1082
1089,  200, 1019,  199,  998
1090, 1014, 1418, 1020,  193
1091,  282, 1425, 1046, 1448
1092, 1047, 1458, 1078, 1412
1093, 1451, 1209, 1050,  301
1094, 1052,  207,  950, 1401
1095,  208, 1127, 1208, 1051
1096,  235, 1027,  979, 1410
1097, 1460, 1223,  235, 1410
1098, 1457,  316, 1006,  965
1099, 1130, 1122, 1478, 1029
1100, 1212, 1189, 1248,  319
1101, 1119, 1031,  188, 1453
1102, 1362, 1186, 1032,  157
1103,  158,  997, 1034, 1165
1104, 1387, 1056,  286, 1073
1105, 1057, 1035, 1075,  277
1106, 1491, 1059,  315, 1036
1107, 1058, 1037,  216, 1443
1108, 1171, 1060,  299, 1021
1109,  222, 1037, 1058, 1468
1110, 1039, 1431, 1061, 1016
1111, 1162, 1040,  273, 1158
1112,  170,  907, 1064, 1350
1113, 1062, 1041, 1063,  309
1114, 1082,  145, 1232, 1180
1115, 1093, 1400, 1083,  187
1116,  193, 1020, 1419, 1044
1117, 1229, 1260, 1171, 1046
1118, 1061, 1170, 1228,  227
1119, 1068, 1227,  283, 1173
1120, 1074, 1085,  302, 1095
1121, 1452, 1023,  301, 1050
1122, 1084, 1051, 1208,  201
1123, 1226,  214, 1069,  215
1124, 1114, 1168, 1226,  215
1125, 1079, 1054, 1072,  297
1126, 1377, 1071, 1392, 1055
1127, 1055, 1392, 1109,  296
1128, 1074, 1056, 1387,  285
1129, 1057, 1086, 1076,  278
1130, 1078, 1443, 1089, 1412
1131, 1491, 1492, 1088, 1059
1132, 1176, 1060,  298, 1259
1133,  145, 1018, 1062, 1090
1134,  309, 1063, 1098, 1120
1135,  906, 1065, 1247,  125
1136, 1084, 1020, 1418, 1398
1137, 1118, 1067,  201, 1224
1138, 1483, 1227, 1068,  300
1139,  956,  240, 1070, 1373
1140, 1071,  295, 1426, 1392
1141, 1186, 1073,  286,  970
1142, 1085, 1074,  285, 1000
1143, 1086, 1057,  277, 1429
1144,  295, 1071, 1076, 1254
1145,  300, 1045, 1077, 1088
1146, 1077,  299, 1490, 1038
1147, 1423, 1105, 1402,  280
1148, 1054, 1079, 1423,  280
1149, 1108, 1201, 1080, 1096
1150, 1110, 1098, 1063, 1081
1151,  302, 1085, 1050, 1209
1152,  294, 1213, 1254, 1429
1153, 1087,  165,  910, 1136
1154, 1075, 1087,  166, 1376
1155, 1412, 1089,  215, 1069
1156,  308, 1112, 1101, 1134
1157, 1113, 1091, 1121, 1427
1158, 1102, 1091, 1113, 1428
1159, 1099, 1092,  303, 1107
1160, 1435, 1093,  187, 1149
1161, 1066, 1400, 1093, 1435
1162, 1031, 1106, 1441,  195
1163,  187, 1083, 1094, 1157
1164, 1484,  977, 1481, 1108
1165, 1097, 1111, 1124, 1213
1166, 1125,  293, 1117, 1100
1167,  294, 1429, 1100, 1117
1168, 1112,  308, 1430, 1225
1169, 1376, 1102,  277, 1075
1170, 1103, 1478, 1122, 1114
1171, 1104, 1487, 1123, 1461
1172, 1181, 1105, 1423, 1473
1173, 1106, 1031, 1119, 1094
1174, 1107,  303, 1189,  304
1175,  313, 1201, 1108, 1481
1176,  295, 1124, 1129, 1426
1177, 1471, 1110, 1117,  293
1178, 1111,  980, 1129, 1124
1179,  146, 1179, 1112, 1225
1180, 1120, 1133, 1433, 1134
1181, 1113, 1427, 1449, 1141
1182, 1169, 1461,  301, 1023
1183, 1406, 1149, 1436, 1146
1184, 1187, 1396, 1406, 1146
1185, 1116,  234, 1025, 1005
1186, 1100, 1102, 1428, 1125
1187, 1163,  202,  978, 1462
1188, 1471,  293, 1488, 1489
1189, 1098, 1110, 1471, 1489
1190, 1427, 1121, 1391,  167
1191, 1123, 1131, 1126, 1451
1192, 1461, 1123, 1451,  301
1193,  311, 1137, 1129,  980
1194, 1132, 1450,  276, 1139
1195,  209,  975, 1217, 1474
1196, 1127, 1217, 1255, 1208
1197, 1234,  185, 1183, 1370
1198, 1137,  311,  991,  963
1199, 1474, 1130, 1029,  209
1200, 1028,  317, 1131, 1486
1201, 1139,  292, 1135, 1132
1202,  293, 1125, 1450, 1132
1203, 1132, 1135, 1488,  293
1204, 1488, 1446, 1133, 1489
1205, 1159, 1172, 1446,  292
1206, 1140, 1137,  963,  312
1207, 1479, 1138, 1475,  275
1208, 1139, 1138, 1148, 1480
1209, 1140,  312, 1096, 1109
1210, 1449, 1143, 1142, 1475
1211, 1142, 1143,  168, 1144
1212, 1144,  275, 1475, 1142
1213, 1147, 1472, 1150, 1477
1214, 1151, 1148, 1145, 1444
1215, 1470,  275, 1144, 1472
1216, 1435, 1149, 1406, 1115
1217,  168, 1143, 1146, 1436
1218,  168, 1150, 1472, 1144
1219, 1148, 1151, 1154, 1480
1220, 1153, 1152, 1436, 1149
1221, 1459, 1477, 1150, 1152
1222, 1415, 1416, 1155, 1389
1223,  291, 1154, 1151, 1415
1224, 1153, 1149,  187, 1157
1225, 1480, 1154,  292, 1139
1226, 1160, 1158,  273, 1198
1227, 1415, 1151, 1444, 1416
1228, 1454, 1455, 1156, 1442
1229, 1152, 1153, 1156, 1459
1230, 1162, 1161, 1221, 1017
1231, 1272,  302, 1209, 1253
1232, 1218, 1248, 1164, 1272
1233, 1250, 1201,  313, 1482
1234, 1223, 1460, 1167, 1264
1235, 1168, 1024, 1052, 1226
1236, 1227, 1169, 1049,  283
1237, 1170, 1061, 1431, 1022
1238, 1172, 1235, 1432, 1433
1239, 1264, 1167, 1239, 1243
1240, 1175, 1485,  228, 1016
1241, 1473, 1250, 1482, 1181
1242, 1177,  873, 1341,  185
1243, 1356, 1177,  185, 1234
1244,  199,  793,  951,  998
1245, 1238, 1232, 1179,  146
1246,  145, 1090, 1179, 1232
1247, 1180, 1327, 1247, 1065
1248,  297, 1201, 1250, 1473
1249, 1447,  298, 1260, 1229
1250, 1251,  291, 1415, 1389
1251, 1235, 1182,  307, 1256
1252, 1187, 1386, 1370, 1396
1253, 1185,  281,  952, 1393
1254, 1188, 1234, 1370, 1386
1255, 1188, 1386, 1391, 1382
1256, 1248, 1189,  303, 1164
1257, 1190,  229,  802,  759
1258, 1197,  598,  269, 1330
1259,  272, 1192, 1237, 1220
1260, 1273, 1202,  290, 1269
1261, 1251, 1389, 1202, 1273
1262, 1326,  257,  905,  256
1263, 1211, 1249, 1210,  130
1264, 1212, 1030,  320, 1194
1265, 1404, 1403,  233, 1214
1266, 1246, 1215,  256,  905
1267, 1216,  973,  318, 1409
1268, 1217,  975,  202, 1255
1269, 1255,  202, 1163, 1224
1270,  318,  976, 1218, 1409
1271,  234, 1116, 1223, 1264
1272, 1268, 1256,  307, 1279
1273, 1404, 1214, 1228, 1048
1274,  281, 1185, 1236, 1447
1275, 1181, 1482, 1259, 1236
1276, 1237, 1192,  289, 1257
1277,  127, 1193, 1238, 1261
1278, 1274, 1240, 1262,  306
1279, 1257,  289, 1277, 1339
1280,  146, 1267, 1261, 1238
1281, 1267, 1275, 1241, 1261
1282,  227, 1228, 1243, 1239
1283, 1276, 1244, 1263,  147
1284, 1265, 1244, 1276,  148
1285, 1278, 1245, 1266,  148
1286, 1262, 1245, 1278,  306
1287, 1266, 1249, 1265,  148
1288, 1270, 1251, 1273, 1375
1289, 1275, 1267, 1252,  147
1290,  146, 1225, 1252, 1267
1291, 1272, 1253, 1409, 1218
1292, 1254, 1076, 1086, 1429
1293, 1430,  308, 1256, 1268
1294, 1339, 1277, 1269,  290
1295, 1351, 1257, 1339, 1358
1296, 1060, 1171, 1260,  298
1297, 1240, 1274, 1269, 1277
1298,  147, 1252, 1268, 1279
1299, 1273, 1269, 1274, 1375
1300, 1279,  307, 1281, 1282
1301,  683, 1280,  707, 1359
1302, 1375, 1274,  306, 1270
1303, 1275,  147, 1263, 1241
1304, 1282, 1278,  148, 1276
1305, 1385, 1281,  307, 1182
1306, 1281, 1385, 1270,  306
1307, 1285, 1284,  269,  598
1308, 1297,  446,  152, 1328
1309, 1300,  608,  616,  263
1310, 1301,  620,  587,  267
1311,  270, 1329,  820, 1306
1312, 1322,  757, 1314, 1303
1313, 1315,  824, 1317,  150
1314,  154,  457, 1318, 1319
1315, 1320,  644, 1338,  735
1316, 1321,  268, 1322, 1303
1317, 1324,  112,  563,  615
1318, 1340, 1325,  630,  183
1319, 1310,  481,  478,  623
1320,  592,  597,  151,  878
1321,  697,  245, 1334, 1335
1322, 1340,  735, 1354, 1365
1323, 1343, 1342,  814,  861
1324,  716, 1319, 1342, 1343
1325,  744, 1335, 1345, 1346
1326, 1348,  719,  779,  243
1327, 1405, 1358, 1202, 1389
1328, 1160, 1198, 1351, 1417
1329,  875, 1354,  163, 1372
1330, 1356, 1234, 1188, 1382
1331, 1346, 1345, 1368, 1383
1332, 1383, 1360,  870, 1346
1333, 1358, 1339,  290, 1202
1334,  115,  683, 1359, 1364
1335, 1374,  956,  870, 1360
1336, 1073, 1186, 1362, 1363
1337,  239,  866, 1367, 1368
1338, 1360, 1383, 1368, 1367
1339, 1370, 1183,  186, 1396
1340, 1384, 1373,  233, 1403
1341, 1128, 1382, 1391, 1121
1342, 1187,  167, 1391, 1386
1343, 1155, 1417, 1405, 1389
1344, 1390, 1408, 1407, 1363
1345, 1363, 1407, 1387, 1073
1346, 1417, 1155, 1158, 1160
1347, 1115, 1406, 1396,  186
1348,  200,  998, 1379, 1398
1349, 1390, 1034,  997, 1408
1350, 1411,  857,  140,  934
1351, 1413,  859,  139,  932
1352,  960,  913, 1424, 1425
1353, 1229, 1424,  281, 1447
1354, 1449, 1427,  167, 1143
1355, 1428,  276, 1450, 1125
1356,  285, 1387, 1407, 1434
1357, 1134, 1433, 1432,  308
1358, 1433, 1133, 1446, 1172
1359, 1434, 1420, 1000,  285
1360, 1106,  194, 1440, 1441
1361, 1442, 1119, 1453, 1454
1362, 1416, 1444, 1445,  274
1363, 1453,  188,  981, 1454
1364,  981,  169, 1455, 1454
1365, 1468, 1039, 1016, 1469
1366, 1476, 1221, 1477, 1459
1367,  300, 1104, 1461, 1483
1368, 1462,  978,  195, 1441
1369, 1015, 1438, 1465, 1466
1370,  980, 1111,  310, 1467
1371,  275, 1470, 1145, 1479
1372, 1141, 1449, 1475, 1138
1373, 1489, 1133, 1120, 1098
1374,  169, 1221, 1476, 1455
1375, 1478, 1103,  216, 1029
1376, 1079,  297, 1473, 1423
1377, 1131, 1123, 1487, 1486
1378, 1491, 1036,  316, 1492
*Nset, nset=Part-1-1_Set-1, generate
    1,  1492,     1
*Elset, elset=Part-1-1_Set-1, generate
    1,  1378,     1
** Section: Section-1
*Solid Section, elset=Part-1-1_Set-1, material=Steel
,
*System
*Node
   1493,          -6.,           2.,           0.
*Node
   1494,           2.,          -6.,           0.
*Nset, nset=Set-5
1493,
*Nset, nset=Set-6
1494,
*Nset, nset=t_Set-1
  96,  97,  98,  99, 100, 101, 102, 103, 104, 105, 106, 107, 108, 431, 432, 433
 434, 435, 436, 437, 438, 439, 440, 441, 442, 443
*Elset, elset=t_Set-1
   7,   9,  20,  21,  26,  32,  33,  35,  36,  53, 345, 346, 347, 349, 351, 373
 569, 570, 572, 573, 574, 576, 580, 583, 584, 761
*Nset, nset=t_Set-3
  83,  84,  85,  86,  87,  88,  89,  90,  91,  92,  93,  94,  95, 418, 419, 420
 421, 422, 423, 424, 425, 426, 427, 428, 429, 430
*Elset, elset=t_Set-3
 178, 180, 197, 198, 201, 202, 210, 222, 223, 225, 232, 237, 335, 336, 340, 466
 563, 564, 565, 566, 567, 577, 578, 586, 589, 609
*Nset, nset=_PickedSet7
1493,
*Nset, nset=_PickedSet9
1494,
** Constraint: Constraint-1
*Rigid Body, ref node=_PickedSet7, tie nset=t_Set-1
** Constraint: Constraint-2
*Rigid Body, ref node=_PickedSet9, tie nset=t_Set-3
** 
** MATERIALS
** 
*Material, name=Steel
*Density
 0.28,
*Elastic
29000., 0.3
** ----------------------------------------------------------------
** 
** STEP: Step-1
** 
*Step, name=Step-1, nlgeom=NO, perturbation
*Static
** 
** BOUNDARY CONDITIONS
** 
** Name: BC-1 Type: Symmetry/Antisymmetry/Encastre
*Boundary
Set-6, ENCASTRE
** 
** LOADS
** 
** Name: Load-1   Type: Concentrated force
*Cload
Set-5, 2, -10.
** 
** OUTPUT REQUESTS
** 
** 
** FIELD OUTPUT: F-Output-1
** 
*Output, field, variable=PRESELECT
** 
** HISTORY OUTPUT: H-Output-1
** 
*Output, history, variable=PRESELECT
*End Step
